c mask-aware exact local-defect tokens; bidirectional gates
c input i 2 3 4
c input p 172 173 174 175
c input q 176 177 178 179
p cnf 254 776
1 0
-2 -3 -5 0
2 3 -5 0
2 -3 5 0
-2 3 5 0
-6 2 0
-6 3 0
6 -2 -3 0
-4 -6 -7 0
4 6 -7 0
4 -6 7 0
-4 6 7 0
-8 4 0
-8 6 0
8 -4 -6 0
-5 -7 -9 0
5 7 -9 0
5 -7 9 0
-5 7 9 0
-10 5 0
-10 7 0
10 -5 -7 0
-11 -5 0
-11 7 0
11 5 -7 0
-12 -11 0
-12 7 0
12 11 -7 0
2 -5 -13 0
-2 5 -13 0
-2 -5 13 0
2 5 13 0
-14 -2 0
-14 5 0
14 2 -5 0
-7 -14 -15 0
7 14 -15 0
7 -14 15 0
-7 14 15 0
-16 7 0
-16 14 0
16 -7 -14 0
-17 2 0
-17 5 0
17 -2 -5 0
-18 -17 0
-18 5 0
18 17 -5 0
-19 -18 0
-19 7 0
19 18 -7 0
-20 -19 0
-20 7 0
20 19 -7 0
-21 2 0
-21 20 0
21 -2 -20 0
-22 -20 0
-22 -2 0
22 20 2 0
-23 -22 0
-23 -21 0
23 22 21 0
-24 13 0
-24 20 0
24 -13 -20 0
-25 -20 0
-25 5 0
25 20 -5 0
-26 -25 0
-26 -24 0
26 25 24 0
-27 15 0
-27 20 0
27 -15 -20 0
-28 -20 0
-28 7 0
28 20 -7 0
-29 -28 0
-29 -27 0
29 28 27 0
-30 -16 0
-30 20 0
30 16 -20 0
-31 -4 0
-31 -3 0
31 4 3 0
-3 -4 -32 0
3 4 -32 0
3 -4 32 0
-3 4 32 0
-33 3 0
-33 4 0
33 -3 -4 0
-34 -3 0
-34 4 0
34 3 -4 0
-35 -34 0
-35 4 0
35 34 -4 0
-36 -3 0
-36 35 0
36 3 -35 0
-37 -35 0
-37 3 0
37 35 -3 0
-38 -37 0
-38 -36 0
38 37 36 0
-39 32 0
-39 35 0
39 -32 -35 0
-40 -35 0
-40 4 0
40 35 -4 0
-41 -40 0
-41 -39 0
41 40 39 0
-42 -33 0
-42 35 0
42 33 -35 0
38 -2 -43 0
-38 2 -43 0
-38 -2 43 0
38 2 43 0
-44 -38 0
-44 2 0
44 38 -2 0
-41 -44 -45 0
41 44 -45 0
41 -44 45 0
-41 44 45 0
-46 41 0
-46 44 0
46 -41 -44 0
-47 -46 0
-47 41 0
47 46 -41 0
-48 -38 0
-48 -2 0
48 38 2 0
-49 -48 0
-49 -38 0
49 48 38 0
-50 -49 0
-50 41 0
50 49 -41 0
-51 -50 0
-51 -2 0
51 50 2 0
-52 2 0
-52 50 0
52 -2 -50 0
-53 -52 0
-53 -51 0
53 52 51 0
-54 -50 0
-54 43 0
54 50 -43 0
-55 -38 0
-55 50 0
55 38 -50 0
-56 -55 0
-56 -54 0
56 55 54 0
-57 -50 0
-57 45 0
57 50 -45 0
-58 -41 0
-58 50 0
58 41 -50 0
-59 -58 0
-59 -57 0
59 58 57 0
-60 53 0
-60 56 0
60 -53 -56 0
-61 23 0
-61 26 0
61 -23 -26 0
-62 29 0
-62 61 0
62 -29 -61 0
-63 26 0
-63 29 0
63 -26 -29 0
-64 -26 0
-64 23 0
64 26 -23 0
-65 -64 0
-65 -26 0
65 64 26 0
-66 -65 0
-66 29 0
66 65 -29 0
-67 -63 0
-67 66 0
67 63 -66 0
-68 -67 0
-68 -62 0
68 67 62 0
-69 -29 0
-69 61 0
69 29 -61 0
-70 -69 0
-70 -29 0
70 69 29 0
-71 -65 0
-71 -29 0
71 65 29 0
-72 -71 0
-72 -29 0
72 71 29 0
-73 -72 0
-73 70 0
73 72 -70 0
-74 -73 0
-74 68 0
74 73 -68 0
-75 31 0
-75 60 0
75 -31 -60 0
-76 -74 0
-76 75 0
76 74 -75 0
-77 -53 0
-77 56 0
77 53 -56 0
-78 31 0
-78 77 0
78 -31 -77 0
-79 -74 0
-79 78 0
79 74 -78 0
-76 -79 -80 0
76 79 -80 0
76 -79 80 0
-76 79 80 0
-81 76 0
-81 79 0
81 -76 -79 0
-82 -56 0
-82 53 0
82 56 -53 0
-83 31 0
-83 82 0
83 -31 -82 0
-84 -74 0
-84 83 0
84 74 -83 0
-80 -84 -85 0
80 84 -85 0
80 -84 85 0
-80 84 85 0
-86 80 0
-86 84 0
86 -80 -84 0
-81 -86 -87 0
81 86 -87 0
81 -86 87 0
-81 86 87 0
-88 81 0
-88 86 0
88 -81 -86 0
-89 -2 0
-89 3 0
89 2 -3 0
-90 -89 0
-90 3 0
90 89 -3 0
-91 -90 0
-91 4 0
91 90 -4 0
-92 -91 0
-92 4 0
92 91 -4 0
-93 -92 0
-93 -31 0
93 92 31 0
4 -3 -94 0
-4 3 -94 0
-4 -3 94 0
4 3 94 0
-95 -4 0
-95 3 0
95 4 -3 0
-96 -95 0
-96 -4 0
96 95 4 0
3 -2 -97 0
-3 2 -97 0
-3 -2 97 0
3 2 97 0
-98 -3 0
-98 2 0
98 3 -2 0
-99 -98 0
-99 -3 0
99 98 3 0
99 -4 -100 0
-99 4 -100 0
-99 -4 100 0
99 4 100 0
-101 -99 0
-101 4 0
101 99 -4 0
-102 -3 0
-102 -2 0
102 3 2 0
-103 4 0
-103 102 0
103 -4 -102 0
-104 -103 0
-104 4 0
104 103 -4 0
-105 -2 0
-105 104 0
105 2 -104 0
-106 -104 0
-106 2 0
106 104 -2 0
-107 -106 0
-107 -105 0
107 106 105 0
-108 97 0
-108 104 0
108 -97 -104 0
-109 -104 0
-109 3 0
109 104 -3 0
-110 -109 0
-110 -108 0
110 109 108 0
-111 100 0
-111 104 0
111 -100 -104 0
-112 -104 0
-112 4 0
112 104 -4 0
-113 -112 0
-113 -111 0
113 112 111 0
-114 -101 0
-114 104 0
114 101 -104 0
-115 107 0
-115 110 0
115 -107 -110 0
-116 113 0
-116 115 0
116 -113 -115 0
-117 93 0
-117 116 0
117 -93 -116 0
-118 -74 0
-118 117 0
118 74 -117 0
-85 -118 -119 0
85 118 -119 0
85 -118 119 0
-85 118 119 0
-120 85 0
-120 118 0
120 -85 -118 0
-87 -120 -121 0
87 120 -121 0
87 -120 121 0
-87 120 121 0
-122 87 0
-122 120 0
122 -87 -120 0
-88 -122 -123 0
88 122 -123 0
88 -122 123 0
-88 122 123 0
-124 88 0
-124 122 0
124 -88 -122 0
-125 -107 0
-125 110 0
125 107 -110 0
-126 113 0
-126 125 0
126 -113 -125 0
-127 93 0
-127 126 0
127 -93 -126 0
-128 -74 0
-128 127 0
128 74 -127 0
-119 -128 -129 0
119 128 -129 0
119 -128 129 0
-119 128 129 0
-130 119 0
-130 128 0
130 -119 -128 0
-121 -130 -131 0
121 130 -131 0
121 -130 131 0
-121 130 131 0
-132 121 0
-132 130 0
132 -121 -130 0
-123 -132 -133 0
123 132 -133 0
123 -132 133 0
-123 132 133 0
-134 123 0
-134 132 0
134 -123 -132 0
-124 -134 -135 0
124 134 -135 0
124 -134 135 0
-124 134 135 0
-136 124 0
-136 134 0
136 -124 -134 0
-137 -110 0
-137 107 0
137 110 -107 0
-138 113 0
-138 137 0
138 -113 -137 0
-139 93 0
-139 138 0
139 -93 -138 0
-140 -74 0
-140 139 0
140 74 -139 0
-129 -140 -141 0
129 140 -141 0
129 -140 141 0
-129 140 141 0
-142 129 0
-142 140 0
142 -129 -140 0
-131 -142 -143 0
131 142 -143 0
131 -142 143 0
-131 142 143 0
-144 131 0
-144 142 0
144 -131 -142 0
-133 -144 -145 0
133 144 -145 0
133 -144 145 0
-133 144 145 0
-146 133 0
-146 144 0
146 -133 -144 0
-135 -146 -147 0
135 146 -147 0
135 -146 147 0
-135 146 147 0
-148 135 0
-148 146 0
148 -135 -146 0
-149 -110 0
-149 -107 0
149 110 107 0
-150 113 0
-150 149 0
150 -113 -149 0
-151 93 0
-151 150 0
151 -93 -150 0
-152 -74 0
-152 151 0
152 74 -151 0
-141 -152 -153 0
141 152 -153 0
141 -152 153 0
-141 152 153 0
-154 141 0
-154 152 0
154 -141 -152 0
-143 -154 -155 0
143 154 -155 0
143 -154 155 0
-143 154 155 0
-156 143 0
-156 154 0
156 -143 -154 0
-145 -156 -157 0
145 156 -157 0
145 -156 157 0
-145 156 157 0
-158 145 0
-158 156 0
158 -145 -156 0
-147 -158 -159 0
147 158 -159 0
147 -158 159 0
-147 158 159 0
-160 147 0
-160 158 0
160 -147 -158 0
-161 -113 0
-161 115 0
161 113 -115 0
-162 93 0
-162 161 0
162 -93 -161 0
-163 -74 0
-163 162 0
163 74 -162 0
-153 -163 -164 0
153 163 -164 0
153 -163 164 0
-153 163 164 0
-165 153 0
-165 163 0
165 -153 -163 0
-155 -165 -166 0
155 165 -166 0
155 -165 166 0
-155 165 166 0
-167 155 0
-167 165 0
167 -155 -165 0
-157 -167 -168 0
157 167 -168 0
157 -167 168 0
-157 167 168 0
-169 157 0
-169 167 0
169 -157 -167 0
-159 -169 -170 0
159 169 -170 0
159 -169 170 0
-159 169 170 0
-171 159 0
-171 169 0
171 -159 -169 0
-180 -63 0
-180 29 0
180 63 -29 0
-181 -180 0
-181 -62 0
181 180 62 0
-182 -73 0
-182 181 0
182 73 -181 0
-183 -66 0
-183 29 0
183 66 -29 0
-184 -183 0
-184 -182 0
184 183 182 0
-185 -166 0
-185 -164 0
185 166 164 0
-186 -168 0
-186 185 0
186 168 -185 0
-187 -170 0
-187 186 0
187 170 -186 0
166 -164 -188 0
-166 164 -188 0
-166 -164 188 0
166 164 188 0
-189 -166 0
-189 164 0
189 166 -164 0
-190 -189 0
-190 -166 0
190 189 166 0
190 168 -191 0
-190 -168 -191 0
-190 168 191 0
190 -168 191 0
-192 -190 0
-192 -168 0
192 190 168 0
-193 -192 0
-193 -168 0
193 192 168 0
193 170 -194 0
-193 -170 -194 0
-193 170 194 0
193 -170 194 0
-195 -193 0
-195 -170 0
195 193 170 0
-196 -195 0
-196 -170 0
196 195 170 0
-197 -173 0
-197 -172 0
197 173 172 0
-198 -174 0
-198 197 0
198 174 -197 0
-199 -175 0
-199 198 0
199 175 -198 0
-200 -177 0
-200 -176 0
200 177 176 0
-201 -178 0
-201 200 0
201 178 -200 0
-202 -179 0
-202 201 0
202 179 -201 0
-203 199 0
-203 202 0
203 -199 -202 0
-204 -172 0
-204 -164 0
204 172 164 0
164 -172 -205 0
-164 172 -205 0
-164 -172 205 0
164 172 205 0
-206 -173 0
-206 188 0
206 173 -188 0
-173 -188 -207 0
173 188 -207 0
173 -188 207 0
-173 188 207 0
-208 -207 0
-208 204 0
208 207 -204 0
-209 -208 0
-209 -206 0
209 208 206 0
-210 -174 0
-210 191 0
210 174 -191 0
-174 -191 -211 0
174 191 -211 0
174 -191 211 0
-174 191 211 0
-212 -211 0
-212 -209 0
212 211 209 0
-213 -212 0
-213 -210 0
213 212 210 0
-214 -175 0
-214 194 0
214 175 -194 0
-175 -194 -215 0
175 194 -215 0
175 -194 215 0
-175 194 215 0
-216 -215 0
-216 -213 0
216 215 213 0
-217 -216 0
-217 -214 0
217 216 214 0
-218 -176 0
-218 -164 0
218 176 164 0
164 -176 -219 0
-164 176 -219 0
-164 -176 219 0
164 176 219 0
-220 -177 0
-220 188 0
220 177 -188 0
-177 -188 -221 0
177 188 -221 0
177 -188 221 0
-177 188 221 0
-222 -221 0
-222 218 0
222 221 -218 0
-223 -222 0
-223 -220 0
223 222 220 0
-224 -178 0
-224 191 0
224 178 -191 0
-178 -191 -225 0
178 191 -225 0
178 -191 225 0
-178 191 225 0
-226 -225 0
-226 -223 0
226 225 223 0
-227 -226 0
-227 -224 0
227 226 224 0
-228 -179 0
-228 194 0
228 179 -194 0
-179 -194 -229 0
179 194 -229 0
179 -194 229 0
-179 194 229 0
-230 -229 0
-230 -227 0
230 229 227 0
-231 -230 0
-231 -228 0
231 230 228 0
-232 -217 0
-232 -187 0
232 217 187 0
-233 -231 0
-233 232 0
233 231 -232 0
-234 187 0
-234 203 0
234 -187 -203 0
-235 -234 0
-235 -233 0
235 234 233 0
-236 -172 0
-236 164 0
236 172 -164 0
-164 -172 -237 0
164 172 -237 0
164 -172 237 0
-164 172 237 0
-238 -173 0
-238 166 0
238 173 -166 0
-166 -173 -239 0
166 173 -239 0
166 -173 239 0
-166 173 239 0
-240 -239 0
-240 236 0
240 239 -236 0
-241 -240 0
-241 -238 0
241 240 238 0
-242 -174 0
-242 168 0
242 174 -168 0
-168 -174 -243 0
168 174 -243 0
168 -174 243 0
-168 174 243 0
-244 -243 0
-244 -241 0
244 243 241 0
-245 -244 0
-245 -242 0
245 244 242 0
-246 -175 0
-246 170 0
246 175 -170 0
-170 -175 -247 0
170 175 -247 0
170 -175 247 0
-170 175 247 0
-248 -247 0
-248 -245 0
248 247 245 0
-249 -248 0
-249 -246 0
249 248 246 0
-250 -249 0
-250 202 0
250 249 -202 0
-251 -235 0
-251 184 0
251 235 -184 0
-252 -184 0
-252 250 0
252 184 -250 0
-253 -252 0
-253 -251 0
253 252 251 0
-254 -253 0
-254 -92 0
254 253 92 0
254 0
