c mask-aware exact local-defect tokens; bidirectional gates
c input i 2 3 4
c input p 47
c input q 48
p cnf 68 196
1 0
-2 -3 -5 0
2 3 -5 0
2 -3 5 0
-2 3 5 0
-6 2 0
-6 3 0
6 -2 -3 0
-4 -6 -7 0
4 6 -7 0
4 -6 7 0
-4 6 7 0
-8 4 0
-8 6 0
8 -4 -6 0
-5 -7 -9 0
5 7 -9 0
5 -7 9 0
-5 7 9 0
-10 5 0
-10 7 0
10 -5 -7 0
-11 -5 0
-11 7 0
11 5 -7 0
-12 -11 0
-12 7 0
12 11 -7 0
2 -5 -13 0
-2 5 -13 0
-2 -5 13 0
2 5 13 0
-14 -2 0
-14 5 0
14 2 -5 0
-7 -14 -15 0
7 14 -15 0
7 -14 15 0
-7 14 15 0
-16 7 0
-16 14 0
16 -7 -14 0
-17 2 0
-17 5 0
17 -2 -5 0
-18 -17 0
-18 5 0
18 17 -5 0
-19 -18 0
-19 7 0
19 18 -7 0
-20 -19 0
-20 7 0
20 19 -7 0
-21 2 0
-21 20 0
21 -2 -20 0
-22 -20 0
-22 -2 0
22 20 2 0
-23 -22 0
-23 -21 0
23 22 21 0
-24 13 0
-24 20 0
24 -13 -20 0
-25 -20 0
-25 5 0
25 20 -5 0
-26 -25 0
-26 -24 0
26 25 24 0
-27 15 0
-27 20 0
27 -15 -20 0
-28 -20 0
-28 7 0
28 20 -7 0
-29 -28 0
-29 -27 0
29 28 27 0
-30 -16 0
-30 20 0
30 16 -20 0
-31 23 0
-31 26 0
31 -23 -26 0
-32 29 0
-32 31 0
32 -29 -31 0
-33 26 0
-33 29 0
33 -26 -29 0
-34 -33 0
-34 29 0
34 33 -29 0
-35 -34 0
-35 -32 0
35 34 32 0
-36 -29 0
-36 31 0
36 29 -31 0
-37 -36 0
-37 -29 0
37 36 29 0
-38 -26 0
-38 23 0
38 26 -23 0
-39 -38 0
-39 -26 0
39 38 26 0
-40 -39 0
-40 -29 0
40 39 29 0
-41 -40 0
-41 -29 0
41 40 29 0
-42 -41 0
-42 37 0
42 41 -37 0
-43 -42 0
-43 35 0
43 42 -35 0
-44 -39 0
-44 29 0
44 39 -29 0
-45 -44 0
-45 29 0
45 44 -29 0
-46 -45 0
-46 -43 0
46 45 43 0
-49 -48 0
-49 -47 0
49 48 47 0
-50 -47 0
-50 -46 0
50 47 46 0
46 -47 -51 0
-46 47 -51 0
-46 -47 51 0
46 47 51 0
-52 -48 0
-52 -46 0
52 48 46 0
46 -48 -53 0
-46 48 -53 0
-46 -48 53 0
46 48 53 0
-54 46 0
-54 50 0
54 -46 -50 0
-55 52 0
-55 54 0
55 -52 -54 0
-56 -46 0
-56 49 0
56 46 -49 0
-57 -56 0
-57 -55 0
57 56 55 0
-58 -47 0
-58 46 0
58 47 -46 0
-46 -47 -59 0
46 47 -59 0
46 -47 59 0
-46 47 59 0
-60 -48 0
-60 58 0
60 48 -58 0
-61 -57 0
-61 46 0
61 57 -46 0
-62 -46 0
-62 60 0
62 46 -60 0
-63 -62 0
-63 -61 0
63 62 61 0
-64 -2 0
-64 3 0
64 2 -3 0
-65 -64 0
-65 3 0
65 64 -3 0
-66 -65 0
-66 4 0
66 65 -4 0
-67 -66 0
-67 4 0
67 66 -4 0
-68 -67 0
-68 -63 0
68 67 63 0
68 0
