c mask-aware exact local-defect tokens; bidirectional gates
c input i 2
c input p 3 4 5 6
c input q 7 8 9 10
p cnf 56 149
1 0
-11 -4 0
-11 -3 0
11 4 3 0
-12 -5 0
-12 11 0
12 5 -11 0
-13 -6 0
-13 12 0
13 6 -12 0
-14 -8 0
-14 -7 0
14 8 7 0
-15 -9 0
-15 14 0
15 9 -14 0
-16 -10 0
-16 15 0
16 10 -15 0
-17 13 0
-17 16 0
17 -13 -16 0
-18 -3 0
-18 2 0
18 3 -2 0
-2 -3 -19 0
2 3 -19 0
2 -3 19 0
-2 3 19 0
-20 -4 0
-20 2 0
20 4 -2 0
-2 -4 -21 0
2 4 -21 0
2 -4 21 0
-2 4 21 0
-22 -21 0
-22 18 0
22 21 -18 0
-23 -22 0
-23 -20 0
23 22 20 0
-24 -5 0
-24 2 0
24 5 -2 0
-2 -5 -25 0
2 5 -25 0
2 -5 25 0
-2 5 25 0
-26 -25 0
-26 -23 0
26 25 23 0
-27 -26 0
-27 -24 0
27 26 24 0
-28 -6 0
-28 2 0
28 6 -2 0
-2 -6 -29 0
2 6 -29 0
2 -6 29 0
-2 6 29 0
-30 -29 0
-30 -27 0
30 29 27 0
-31 -30 0
-31 -28 0
31 30 28 0
-32 -7 0
-32 2 0
32 7 -2 0
-2 -7 -33 0
2 7 -33 0
2 -7 33 0
-2 7 33 0
-34 -8 0
-34 2 0
34 8 -2 0
-2 -8 -35 0
2 8 -35 0
2 -8 35 0
-2 8 35 0
-36 -35 0
-36 32 0
36 35 -32 0
-37 -36 0
-37 -34 0
37 36 34 0
-38 -9 0
-38 2 0
38 9 -2 0
-2 -9 -39 0
2 9 -39 0
2 -9 39 0
-2 9 39 0
-40 -39 0
-40 -37 0
40 39 37 0
-41 -40 0
-41 -38 0
41 40 38 0
-42 -10 0
-42 2 0
42 10 -2 0
-2 -10 -43 0
2 10 -43 0
2 -10 43 0
-2 10 43 0
-44 -43 0
-44 -41 0
44 43 41 0
-45 -44 0
-45 -42 0
45 44 42 0
-46 -31 0
-46 -2 0
46 31 2 0
-47 -45 0
-47 46 0
47 45 -46 0
-48 2 0
-48 17 0
48 -2 -17 0
-49 -48 0
-49 -47 0
49 48 47 0
-50 -3 0
-50 -2 0
50 3 2 0
2 -3 -51 0
-2 3 -51 0
-2 -3 51 0
2 3 51 0
-52 -4 0
-52 50 0
52 4 -50 0
-53 -5 0
-53 52 0
53 5 -52 0
-54 -6 0
-54 53 0
54 6 -53 0
-55 16 0
-55 54 0
55 -16 -54 0
-56 -49 0
-56 -2 0
56 49 2 0
56 0
