c mask-aware exact local-defect tokens; bidirectional gates
c input i 2 3 4
c input p 78 79
c input q 80 81
p cnf 117 345
1 0
-2 -3 -5 0
2 3 -5 0
2 -3 5 0
-2 3 5 0
-6 2 0
-6 3 0
6 -2 -3 0
-4 -6 -7 0
4 6 -7 0
4 -6 7 0
-4 6 7 0
-8 4 0
-8 6 0
8 -4 -6 0
-5 -7 -9 0
5 7 -9 0
5 -7 9 0
-5 7 9 0
-10 5 0
-10 7 0
10 -5 -7 0
-11 -5 0
-11 7 0
11 5 -7 0
-12 -11 0
-12 7 0
12 11 -7 0
2 -5 -13 0
-2 5 -13 0
-2 -5 13 0
2 5 13 0
-14 -2 0
-14 5 0
14 2 -5 0
-7 -14 -15 0
7 14 -15 0
7 -14 15 0
-7 14 15 0
-16 7 0
-16 14 0
16 -7 -14 0
-17 2 0
-17 5 0
17 -2 -5 0
-18 -17 0
-18 5 0
18 17 -5 0
-19 -18 0
-19 7 0
19 18 -7 0
-20 -19 0
-20 7 0
20 19 -7 0
-21 2 0
-21 20 0
21 -2 -20 0
-22 -20 0
-22 -2 0
22 20 2 0
-23 -22 0
-23 -21 0
23 22 21 0
-24 13 0
-24 20 0
24 -13 -20 0
-25 -20 0
-25 5 0
25 20 -5 0
-26 -25 0
-26 -24 0
26 25 24 0
-27 15 0
-27 20 0
27 -15 -20 0
-28 -20 0
-28 7 0
28 20 -7 0
-29 -28 0
-29 -27 0
29 28 27 0
-30 -16 0
-30 20 0
30 16 -20 0
-31 -26 0
-31 23 0
31 26 -23 0
-32 -31 0
-32 -26 0
32 31 26 0
-33 -32 0
-33 -29 0
33 32 29 0
-34 -33 0
-34 -29 0
34 33 29 0
-35 -2 0
-35 3 0
35 2 -3 0
-36 -35 0
-36 3 0
36 35 -3 0
-37 -36 0
-37 -4 0
37 36 4 0
-38 -3 0
-38 4 0
38 3 -4 0
-39 -38 0
-39 4 0
39 38 -4 0
-40 -39 0
-40 -37 0
40 39 37 0
-3 -4 -41 0
3 4 -41 0
3 -4 41 0
-3 4 41 0
-42 3 0
-42 4 0
42 -3 -4 0
-43 2 0
-43 39 0
43 -2 -39 0
-44 -39 0
-44 2 0
44 39 -2 0
-45 -44 0
-45 -43 0
45 44 43 0
-46 -3 0
-46 39 0
46 3 -39 0
-47 -39 0
-47 3 0
47 39 -3 0
-48 -47 0
-48 -46 0
48 47 46 0
-49 39 0
-49 41 0
49 -39 -41 0
-50 -39 0
-50 4 0
50 39 -4 0
-51 -50 0
-51 -49 0
51 50 49 0
-52 -42 0
-52 39 0
52 42 -39 0
-53 -48 0
-53 45 0
53 48 -45 0
-54 51 0
-54 53 0
54 -51 -53 0
-55 23 0
-55 26 0
55 -23 -26 0
-56 29 0
-56 55 0
56 -29 -55 0
-57 26 0
-57 29 0
57 -26 -29 0
-58 -57 0
-58 29 0
58 57 -29 0
-59 -58 0
-59 -56 0
59 58 56 0
-60 40 0
-60 54 0
60 -40 -54 0
-61 -59 0
-61 60 0
61 59 -60 0
34 -61 -62 0
-34 61 -62 0
-34 -61 62 0
34 61 62 0
-63 -34 0
-63 61 0
63 34 -61 0
-64 -3 0
-64 -2 0
64 3 2 0
-65 -4 0
-65 64 0
65 4 -64 0
-66 -65 0
-66 -39 0
66 65 39 0
-67 -32 0
-67 29 0
67 32 -29 0
-68 -29 0
-68 26 0
68 29 -26 0
-69 -68 0
-69 -29 0
69 68 29 0
-70 -69 0
-70 -29 0
70 69 29 0
-71 -70 0
-71 -67 0
71 70 67 0
-72 -2 0
-72 66 0
72 2 -66 0
-73 -71 0
-73 72 0
73 71 -72 0
-62 -73 -74 0
62 73 -74 0
62 -73 74 0
-62 73 74 0
-75 62 0
-75 73 0
75 -62 -73 0
-63 -75 -76 0
63 75 -76 0
63 -75 76 0
-63 75 76 0
-77 63 0
-77 75 0
77 -63 -75 0
-82 -76 0
-82 -74 0
82 76 74 0
76 -74 -83 0
-76 74 -83 0
-76 -74 83 0
76 74 83 0
-84 -76 0
-84 74 0
84 76 -74 0
-85 -84 0
-85 -76 0
85 84 76 0
-86 -79 0
-86 -78 0
86 79 78 0
-87 -81 0
-87 -80 0
87 81 80 0
-88 86 0
-88 87 0
88 -86 -87 0
-89 -78 0
-89 -74 0
89 78 74 0
74 -78 -90 0
-74 78 -90 0
-74 -78 90 0
74 78 90 0
-91 -79 0
-91 83 0
91 79 -83 0
-79 -83 -92 0
79 83 -92 0
79 -83 92 0
-79 83 92 0
-93 -92 0
-93 89 0
93 92 -89 0
-94 -93 0
-94 -91 0
94 93 91 0
-95 -80 0
-95 -74 0
95 80 74 0
74 -80 -96 0
-74 80 -96 0
-74 -80 96 0
74 80 96 0
-97 -81 0
-97 83 0
97 81 -83 0
-81 -83 -98 0
81 83 -98 0
81 -83 98 0
-81 83 98 0
-99 -98 0
-99 95 0
99 98 -95 0
-100 -99 0
-100 -97 0
100 99 97 0
-101 -94 0
-101 -82 0
101 94 82 0
-102 -100 0
-102 101 0
102 100 -101 0
-103 82 0
-103 88 0
103 -82 -88 0
-104 -103 0
-104 -102 0
104 103 102 0
-105 -78 0
-105 74 0
105 78 -74 0
-74 -78 -106 0
74 78 -106 0
74 -78 106 0
-74 78 106 0
-107 -79 0
-107 76 0
107 79 -76 0
-76 -79 -108 0
76 79 -108 0
76 -79 108 0
-76 79 108 0
-109 -108 0
-109 105 0
109 108 -105 0
-110 -109 0
-110 -107 0
110 109 107 0
-111 -110 0
-111 87 0
111 110 -87 0
-112 -104 0
-112 -34 0
112 104 34 0
-113 34 0
-113 111 0
113 -34 -111 0
-114 -113 0
-114 -112 0
114 113 112 0
-115 -36 0
-115 4 0
115 36 -4 0
-116 -115 0
-116 4 0
116 115 -4 0
-117 -116 0
-117 -114 0
117 116 114 0
117 0
