c mask-aware exact local-defect tokens; bidirectional gates
c input i 2 3 4
c input p 22 23
c input q 24 25
p cnf 58 162
1 0
-2 -3 -5 0
2 3 -5 0
2 -3 5 0
-2 3 5 0
-6 2 0
-6 3 0
6 -2 -3 0
-4 -6 -7 0
4 6 -7 0
4 -6 7 0
-4 6 7 0
-8 4 0
-8 6 0
8 -4 -6 0
-9 -4 0
-9 -3 0
9 4 3 0
-10 -5 0
-10 2 0
10 5 -2 0
-11 -7 0
-11 10 0
11 7 -10 0
-12 -11 0
-12 -7 0
12 11 7 0
-13 7 0
-13 10 0
13 -7 -10 0
-14 -13 0
-14 7 0
14 13 -7 0
-15 -14 0
-15 -12 0
15 14 12 0
-16 -2 0
-16 9 0
16 2 -9 0
-17 -15 0
-17 16 0
17 15 -16 0
-18 2 0
-18 9 0
18 -2 -9 0
-19 -15 0
-19 18 0
19 15 -18 0
-17 -19 -20 0
17 19 -20 0
17 -19 20 0
-17 19 20 0
-21 17 0
-21 19 0
21 -17 -19 0
-26 -21 0
-26 -20 0
26 21 20 0
21 -20 -27 0
-21 20 -27 0
-21 -20 27 0
21 20 27 0
-28 -21 0
-28 20 0
28 21 -20 0
-29 -28 0
-29 -21 0
29 28 21 0
-30 -23 0
-30 -22 0
30 23 22 0
-31 -25 0
-31 -24 0
31 25 24 0
-32 30 0
-32 31 0
32 -30 -31 0
-33 -22 0
-33 -20 0
33 22 20 0
20 -22 -34 0
-20 22 -34 0
-20 -22 34 0
20 22 34 0
-35 -23 0
-35 27 0
35 23 -27 0
-23 -27 -36 0
23 27 -36 0
23 -27 36 0
-23 27 36 0
-37 -36 0
-37 33 0
37 36 -33 0
-38 -37 0
-38 -35 0
38 37 35 0
-39 -24 0
-39 -20 0
39 24 20 0
20 -24 -40 0
-20 24 -40 0
-20 -24 40 0
20 24 40 0
-41 -25 0
-41 27 0
41 25 -27 0
-25 -27 -42 0
25 27 -42 0
25 -27 42 0
-25 27 42 0
-43 -42 0
-43 39 0
43 42 -39 0
-44 -43 0
-44 -41 0
44 43 41 0
-45 -38 0
-45 -26 0
45 38 26 0
-46 -44 0
-46 45 0
46 44 -45 0
-47 26 0
-47 32 0
47 -26 -32 0
-48 -47 0
-48 -46 0
48 47 46 0
-49 -22 0
-49 20 0
49 22 -20 0
-20 -22 -50 0
20 22 -50 0
20 -22 50 0
-20 22 50 0
-51 -23 0
-51 21 0
51 23 -21 0
-21 -23 -52 0
21 23 -52 0
21 -23 52 0
-21 23 52 0
-53 -52 0
-53 49 0
53 52 -49 0
-54 -53 0
-54 -51 0
54 53 51 0
-55 -54 0
-55 31 0
55 54 -31 0
-56 -48 0
-56 -15 0
56 48 15 0
-57 15 0
-57 55 0
57 -15 -55 0
-58 -57 0
-58 -56 0
58 57 56 0
-58 0
