c mask-aware exact local-defect tokens; bidirectional gates
c input i 2 3 4
c input p 137 138 139
c input q 140 141 142
p cnf 195 591
1 0
-2 -3 -5 0
2 3 -5 0
2 -3 5 0
-2 3 5 0
-6 2 0
-6 3 0
6 -2 -3 0
-4 -6 -7 0
4 6 -7 0
4 -6 7 0
-4 6 7 0
-8 4 0
-8 6 0
8 -4 -6 0
-5 -7 -9 0
5 7 -9 0
5 -7 9 0
-5 7 9 0
-10 5 0
-10 7 0
10 -5 -7 0
-11 -5 0
-11 7 0
11 5 -7 0
-12 -11 0
-12 7 0
12 11 -7 0
2 -5 -13 0
-2 5 -13 0
-2 -5 13 0
2 5 13 0
-14 -2 0
-14 5 0
14 2 -5 0
-7 -14 -15 0
7 14 -15 0
7 -14 15 0
-7 14 15 0
-16 7 0
-16 14 0
16 -7 -14 0
-17 2 0
-17 5 0
17 -2 -5 0
-18 -17 0
-18 5 0
18 17 -5 0
-19 -18 0
-19 7 0
19 18 -7 0
-20 -19 0
-20 7 0
20 19 -7 0
-21 2 0
-21 20 0
21 -2 -20 0
-22 -20 0
-22 -2 0
22 20 2 0
-23 -22 0
-23 -21 0
23 22 21 0
-24 13 0
-24 20 0
24 -13 -20 0
-25 -20 0
-25 5 0
25 20 -5 0
-26 -25 0
-26 -24 0
26 25 24 0
-27 15 0
-27 20 0
27 -15 -20 0
-28 -20 0
-28 7 0
28 20 -7 0
-29 -28 0
-29 -27 0
29 28 27 0
-30 -16 0
-30 20 0
30 16 -20 0
-31 -29 0
-31 -23 0
31 29 23 0
-32 -23 0
-32 29 0
32 23 -29 0
-33 -32 0
-33 -31 0
33 32 31 0
-34 -29 0
-34 -26 0
34 29 26 0
-35 -26 0
-35 29 0
35 26 -29 0
-36 -35 0
-36 -34 0
36 35 34 0
-37 -4 0
-37 -3 0
37 4 3 0
-3 -4 -38 0
3 4 -38 0
3 -4 38 0
-3 4 38 0
-39 3 0
-39 4 0
39 -3 -4 0
-40 -3 0
-40 4 0
40 3 -4 0
-41 -40 0
-41 4 0
41 40 -4 0
-42 -3 0
-42 41 0
42 3 -41 0
-43 -41 0
-43 3 0
43 41 -3 0
-44 -43 0
-44 -42 0
44 43 42 0
-45 38 0
-45 41 0
45 -38 -41 0
-46 -41 0
-46 4 0
46 41 -4 0
-47 -46 0
-47 -45 0
47 46 45 0
-48 -39 0
-48 41 0
48 39 -41 0
44 -2 -49 0
-44 2 -49 0
-44 -2 49 0
44 2 49 0
-50 -44 0
-50 2 0
50 44 -2 0
-47 -50 -51 0
47 50 -51 0
47 -50 51 0
-47 50 51 0
-52 47 0
-52 50 0
52 -47 -50 0
-53 -52 0
-53 47 0
53 52 -47 0
-54 -44 0
-54 -2 0
54 44 2 0
-55 -54 0
-55 -44 0
55 54 44 0
-56 -55 0
-56 47 0
56 55 -47 0
-57 -56 0
-57 -2 0
57 56 2 0
-58 2 0
-58 56 0
58 -2 -56 0
-59 -58 0
-59 -57 0
59 58 57 0
-60 -56 0
-60 49 0
60 56 -49 0
-61 -44 0
-61 56 0
61 44 -56 0
-62 -61 0
-62 -60 0
62 61 60 0
-63 -56 0
-63 51 0
63 56 -51 0
-64 -47 0
-64 56 0
64 47 -56 0
-65 -64 0
-65 -63 0
65 64 63 0
-66 59 0
-66 62 0
66 -59 -62 0
-67 29 0
-67 33 0
67 -29 -33 0
-68 36 0
-68 67 0
68 -36 -67 0
-69 33 0
-69 36 0
69 -33 -36 0
-70 -68 0
-70 69 0
70 68 -69 0
-71 -33 0
-71 29 0
71 33 -29 0
-72 -71 0
-72 -33 0
72 71 33 0
-73 -72 0
-73 36 0
73 72 -36 0
-74 -36 0
-74 67 0
74 36 -67 0
-75 -74 0
-75 -36 0
75 74 36 0
-76 -75 0
-76 -73 0
76 75 73 0
-77 -76 0
-77 -70 0
77 76 70 0
-78 -36 0
-78 33 0
78 36 -33 0
-79 -78 0
-79 -36 0
79 78 36 0
-80 -72 0
-80 -36 0
80 72 36 0
-81 -80 0
-81 -36 0
81 80 36 0
-82 -81 0
-82 79 0
82 81 -79 0
-83 -82 0
-83 77 0
83 82 -77 0
-84 37 0
-84 66 0
84 -37 -66 0
-85 -83 0
-85 84 0
85 83 -84 0
-86 -59 0
-86 62 0
86 59 -62 0
-87 37 0
-87 86 0
87 -37 -86 0
-88 -83 0
-88 87 0
88 83 -87 0
-85 -88 -89 0
85 88 -89 0
85 -88 89 0
-85 88 89 0
-90 85 0
-90 88 0
90 -85 -88 0
-91 -62 0
-91 59 0
91 62 -59 0
-92 37 0
-92 91 0
92 -37 -91 0
-93 -83 0
-93 92 0
93 83 -92 0
-89 -93 -94 0
89 93 -94 0
89 -93 94 0
-89 93 94 0
-95 89 0
-95 93 0
95 -89 -93 0
-90 -95 -96 0
90 95 -96 0
90 -95 96 0
-90 95 96 0
-97 90 0
-97 95 0
97 -90 -95 0
-98 -2 0
-98 3 0
98 2 -3 0
-99 -98 0
-99 3 0
99 98 -3 0
-100 -99 0
-100 4 0
100 99 -4 0
-101 -100 0
-101 4 0
101 100 -4 0
-102 -101 0
-102 -37 0
102 101 37 0
-103 -3 0
-103 -2 0
103 3 2 0
-104 102 0
-104 103 0
104 -102 -103 0
-105 -83 0
-105 104 0
105 83 -104 0
-94 -105 -106 0
94 105 -106 0
94 -105 106 0
-94 105 106 0
-107 94 0
-107 105 0
107 -94 -105 0
-96 -107 -108 0
96 107 -108 0
96 -107 108 0
-96 107 108 0
-109 96 0
-109 107 0
109 -96 -107 0
-97 -109 -110 0
97 109 -110 0
97 -109 110 0
-97 109 110 0
-111 97 0
-111 109 0
111 -97 -109 0
-112 -3 0
-112 2 0
112 3 -2 0
-113 102 0
-113 112 0
113 -102 -112 0
-114 -83 0
-114 113 0
114 83 -113 0
-106 -114 -115 0
106 114 -115 0
106 -114 115 0
-106 114 115 0
-116 106 0
-116 114 0
116 -106 -114 0
-108 -116 -117 0
108 116 -117 0
108 -116 117 0
-108 116 117 0
-118 108 0
-118 116 0
118 -108 -116 0
-110 -118 -119 0
110 118 -119 0
110 -118 119 0
-110 118 119 0
-120 110 0
-120 118 0
120 -110 -118 0
-121 98 0
-121 102 0
121 -98 -102 0
-122 -83 0
-122 121 0
122 83 -121 0
-115 -122 -123 0
115 122 -123 0
115 -122 123 0
-115 122 123 0
-124 115 0
-124 122 0
124 -115 -122 0
-117 -124 -125 0
117 124 -125 0
117 -124 125 0
-117 124 125 0
-126 117 0
-126 124 0
126 -117 -124 0
-119 -126 -127 0
119 126 -127 0
119 -126 127 0
-119 126 127 0
-128 119 0
-128 126 0
128 -119 -126 0
-129 6 0
-129 102 0
129 -6 -102 0
-130 -83 0
-130 129 0
130 83 -129 0
-123 -130 -131 0
123 130 -131 0
123 -130 131 0
-123 130 131 0
-132 123 0
-132 130 0
132 -123 -130 0
-125 -132 -133 0
125 132 -133 0
125 -132 133 0
-125 132 133 0
-134 125 0
-134 132 0
134 -125 -132 0
-127 -134 -135 0
127 134 -135 0
127 -134 135 0
-127 134 135 0
-136 127 0
-136 134 0
136 -127 -134 0
-143 -83 0
-143 -68 0
143 83 68 0
-144 -133 0
-144 -131 0
144 133 131 0
-145 -135 0
-145 144 0
145 135 -144 0
133 -131 -146 0
-133 131 -146 0
-133 -131 146 0
133 131 146 0
-147 -133 0
-147 131 0
147 133 -131 0
-148 -147 0
-148 -133 0
148 147 133 0
148 135 -149 0
-148 -135 -149 0
-148 135 149 0
148 -135 149 0
-150 -148 0
-150 -135 0
150 148 135 0
-151 -150 0
-151 -135 0
151 150 135 0
-152 -138 0
-152 -137 0
152 138 137 0
-153 -139 0
-153 152 0
153 139 -152 0
-154 -141 0
-154 -140 0
154 141 140 0
-155 -142 0
-155 154 0
155 142 -154 0
-156 153 0
-156 155 0
156 -153 -155 0
-157 -137 0
-157 -131 0
157 137 131 0
131 -137 -158 0
-131 137 -158 0
-131 -137 158 0
131 137 158 0
-159 -138 0
-159 146 0
159 138 -146 0
-138 -146 -160 0
138 146 -160 0
138 -146 160 0
-138 146 160 0
-161 -160 0
-161 157 0
161 160 -157 0
-162 -161 0
-162 -159 0
162 161 159 0
-163 -139 0
-163 149 0
163 139 -149 0
-139 -149 -164 0
139 149 -164 0
139 -149 164 0
-139 149 164 0
-165 -164 0
-165 -162 0
165 164 162 0
-166 -165 0
-166 -163 0
166 165 163 0
-167 -140 0
-167 -131 0
167 140 131 0
131 -140 -168 0
-131 140 -168 0
-131 -140 168 0
131 140 168 0
-169 -141 0
-169 146 0
169 141 -146 0
-141 -146 -170 0
141 146 -170 0
141 -146 170 0
-141 146 170 0
-171 -170 0
-171 167 0
171 170 -167 0
-172 -171 0
-172 -169 0
172 171 169 0
-173 -142 0
-173 149 0
173 142 -149 0
-142 -149 -174 0
142 149 -174 0
142 -149 174 0
-142 149 174 0
-175 -174 0
-175 -172 0
175 174 172 0
-176 -175 0
-176 -173 0
176 175 173 0
-177 -166 0
-177 -145 0
177 166 145 0
-178 -176 0
-178 177 0
178 176 -177 0
-179 145 0
-179 156 0
179 -145 -156 0
-180 -179 0
-180 -178 0
180 179 178 0
-181 -137 0
-181 131 0
181 137 -131 0
-131 -137 -182 0
131 137 -182 0
131 -137 182 0
-131 137 182 0
-183 -138 0
-183 133 0
183 138 -133 0
-133 -138 -184 0
133 138 -184 0
133 -138 184 0
-133 138 184 0
-185 -184 0
-185 181 0
185 184 -181 0
-186 -185 0
-186 -183 0
186 185 183 0
-187 -139 0
-187 135 0
187 139 -135 0
-135 -139 -188 0
135 139 -188 0
135 -139 188 0
-135 139 188 0
-189 -188 0
-189 -186 0
189 188 186 0
-190 -189 0
-190 -187 0
190 189 187 0
-191 -190 0
-191 155 0
191 190 -155 0
-192 -180 0
-192 143 0
192 180 -143 0
-193 -143 0
-193 191 0
193 143 -191 0
-194 -193 0
-194 -192 0
194 193 192 0
-195 -194 0
-195 -101 0
195 194 101 0
195 0
