c mask-aware exact local-defect tokens; bidirectional gates
c input i 2
c input p 3 4
c input q 5 6
p cnf 32 85
1 0
-7 -4 0
-7 -3 0
7 4 3 0
-8 -6 0
-8 -5 0
8 6 5 0
-9 7 0
-9 8 0
9 -7 -8 0
-10 -3 0
-10 2 0
10 3 -2 0
-2 -3 -11 0
2 3 -11 0
2 -3 11 0
-2 3 11 0
-12 -4 0
-12 2 0
12 4 -2 0
-2 -4 -13 0
2 4 -13 0
2 -4 13 0
-2 4 13 0
-14 -13 0
-14 10 0
14 13 -10 0
-15 -14 0
-15 -12 0
15 14 12 0
-16 -5 0
-16 2 0
16 5 -2 0
-2 -5 -17 0
2 5 -17 0
2 -5 17 0
-2 5 17 0
-18 -6 0
-18 2 0
18 6 -2 0
-2 -6 -19 0
2 6 -19 0
2 -6 19 0
-2 6 19 0
-20 -19 0
-20 16 0
20 19 -16 0
-21 -20 0
-21 -18 0
21 20 18 0
-22 -15 0
-22 -2 0
22 15 2 0
-23 -21 0
-23 22 0
23 21 -22 0
-24 2 0
-24 9 0
24 -2 -9 0
-25 -24 0
-25 -23 0
25 24 23 0
-26 -3 0
-26 -2 0
26 3 2 0
2 -3 -27 0
-2 3 -27 0
-2 -3 27 0
2 3 27 0
-28 -4 0
-28 26 0
28 4 -26 0
-29 8 0
-29 28 0
29 -8 -28 0
-30 -25 0
-30 -2 0
30 25 2 0
-31 2 0
-31 29 0
31 -2 -29 0
-32 -31 0
-32 -30 0
32 31 30 0
-32 0
