c mask-aware exact local-defect tokens; bidirectional gates
c input i 2 3 4
c input p 131 132 133
c input q 134 135 136
p cnf 188 570
1 0
-2 -3 -5 0
2 3 -5 0
2 -3 5 0
-2 3 5 0
-6 2 0
-6 3 0
6 -2 -3 0
-4 -6 -7 0
4 6 -7 0
4 -6 7 0
-4 6 7 0
-8 4 0
-8 6 0
8 -4 -6 0
-5 -7 -9 0
5 7 -9 0
5 -7 9 0
-5 7 9 0
-10 5 0
-10 7 0
10 -5 -7 0
-11 -5 0
-11 7 0
11 5 -7 0
-12 -11 0
-12 7 0
12 11 -7 0
2 -5 -13 0
-2 5 -13 0
-2 -5 13 0
2 5 13 0
-14 -2 0
-14 5 0
14 2 -5 0
-7 -14 -15 0
7 14 -15 0
7 -14 15 0
-7 14 15 0
-16 7 0
-16 14 0
16 -7 -14 0
-17 2 0
-17 5 0
17 -2 -5 0
-18 -17 0
-18 5 0
18 17 -5 0
-19 -18 0
-19 7 0
19 18 -7 0
-20 -19 0
-20 7 0
20 19 -7 0
-21 2 0
-21 20 0
21 -2 -20 0
-22 -20 0
-22 -2 0
22 20 2 0
-23 -22 0
-23 -21 0
23 22 21 0
-24 13 0
-24 20 0
24 -13 -20 0
-25 -20 0
-25 5 0
25 20 -5 0
-26 -25 0
-26 -24 0
26 25 24 0
-27 15 0
-27 20 0
27 -15 -20 0
-28 -20 0
-28 7 0
28 20 -7 0
-29 -28 0
-29 -27 0
29 28 27 0
-30 -16 0
-30 20 0
30 16 -20 0
-31 -29 0
-31 -23 0
31 29 23 0
-32 -23 0
-32 29 0
32 23 -29 0
-33 -32 0
-33 -31 0
33 32 31 0
-34 -29 0
-34 -26 0
34 29 26 0
-35 -26 0
-35 29 0
35 26 -29 0
-36 -35 0
-36 -34 0
36 35 34 0
-37 -4 0
-37 -3 0
37 4 3 0
-3 -4 -38 0
3 4 -38 0
3 -4 38 0
-3 4 38 0
-39 3 0
-39 4 0
39 -3 -4 0
-40 -3 0
-40 4 0
40 3 -4 0
-41 -40 0
-41 4 0
41 40 -4 0
-42 -3 0
-42 41 0
42 3 -41 0
-43 -41 0
-43 3 0
43 41 -3 0
-44 -43 0
-44 -42 0
44 43 42 0
-45 38 0
-45 41 0
45 -38 -41 0
-46 -41 0
-46 4 0
46 41 -4 0
-47 -46 0
-47 -45 0
47 46 45 0
-48 -39 0
-48 41 0
48 39 -41 0
44 -2 -49 0
-44 2 -49 0
-44 -2 49 0
44 2 49 0
-50 -44 0
-50 2 0
50 44 -2 0
-47 -50 -51 0
47 50 -51 0
47 -50 51 0
-47 50 51 0
-52 47 0
-52 50 0
52 -47 -50 0
-53 -52 0
-53 47 0
53 52 -47 0
-54 -44 0
-54 -2 0
54 44 2 0
-55 -54 0
-55 -44 0
55 54 44 0
-56 -55 0
-56 47 0
56 55 -47 0
-57 -56 0
-57 -2 0
57 56 2 0
-58 2 0
-58 56 0
58 -2 -56 0
-59 -58 0
-59 -57 0
59 58 57 0
-60 -56 0
-60 49 0
60 56 -49 0
-61 -44 0
-61 56 0
61 44 -56 0
-62 -61 0
-62 -60 0
62 61 60 0
-63 -56 0
-63 51 0
63 56 -51 0
-64 -47 0
-64 56 0
64 47 -56 0
-65 -64 0
-65 -63 0
65 64 63 0
-66 59 0
-66 62 0
66 -59 -62 0
-67 33 0
-67 36 0
67 -33 -36 0
-68 -67 0
-68 36 0
68 67 -36 0
-69 29 0
-69 33 0
69 -29 -33 0
-70 -36 0
-70 69 0
70 36 -69 0
-71 -70 0
-71 -36 0
71 70 36 0
-72 -33 0
-72 29 0
72 33 -29 0
-73 -72 0
-73 -33 0
73 72 33 0
-74 -73 0
-74 -36 0
74 73 36 0
-75 -74 0
-75 -36 0
75 74 36 0
-76 -75 0
-76 71 0
76 75 -71 0
-77 -76 0
-77 -68 0
77 76 68 0
-78 37 0
-78 66 0
78 -37 -66 0
-79 -77 0
-79 78 0
79 77 -78 0
-80 -59 0
-80 62 0
80 59 -62 0
-81 37 0
-81 80 0
81 -37 -80 0
-82 -77 0
-82 81 0
82 77 -81 0
-79 -82 -83 0
79 82 -83 0
79 -82 83 0
-79 82 83 0
-84 79 0
-84 82 0
84 -79 -82 0
-85 -62 0
-85 59 0
85 62 -59 0
-86 37 0
-86 85 0
86 -37 -85 0
-87 -77 0
-87 86 0
87 77 -86 0
-83 -87 -88 0
83 87 -88 0
83 -87 88 0
-83 87 88 0
-89 83 0
-89 87 0
89 -83 -87 0
-84 -89 -90 0
84 89 -90 0
84 -89 90 0
-84 89 90 0
-91 84 0
-91 89 0
91 -84 -89 0
-92 -2 0
-92 3 0
92 2 -3 0
-93 -92 0
-93 3 0
93 92 -3 0
-94 -93 0
-94 4 0
94 93 -4 0
-95 -94 0
-95 4 0
95 94 -4 0
-96 -95 0
-96 -37 0
96 95 37 0
-97 -3 0
-97 -2 0
97 3 2 0
-98 96 0
-98 97 0
98 -96 -97 0
-99 -77 0
-99 98 0
99 77 -98 0
-88 -99 -100 0
88 99 -100 0
88 -99 100 0
-88 99 100 0
-101 88 0
-101 99 0
101 -88 -99 0
-90 -101 -102 0
90 101 -102 0
90 -101 102 0
-90 101 102 0
-103 90 0
-103 101 0
103 -90 -101 0
-91 -103 -104 0
91 103 -104 0
91 -103 104 0
-91 103 104 0
-105 91 0
-105 103 0
105 -91 -103 0
-106 -3 0
-106 2 0
106 3 -2 0
-107 96 0
-107 106 0
107 -96 -106 0
-108 -77 0
-108 107 0
108 77 -107 0
-100 -108 -109 0
100 108 -109 0
100 -108 109 0
-100 108 109 0
-110 100 0
-110 108 0
110 -100 -108 0
-102 -110 -111 0
102 110 -111 0
102 -110 111 0
-102 110 111 0
-112 102 0
-112 110 0
112 -102 -110 0
-104 -112 -113 0
104 112 -113 0
104 -112 113 0
-104 112 113 0
-114 104 0
-114 112 0
114 -104 -112 0
-115 92 0
-115 96 0
115 -92 -96 0
-116 -77 0
-116 115 0
116 77 -115 0
-109 -116 -117 0
109 116 -117 0
109 -116 117 0
-109 116 117 0
-118 109 0
-118 116 0
118 -109 -116 0
-111 -118 -119 0
111 118 -119 0
111 -118 119 0
-111 118 119 0
-120 111 0
-120 118 0
120 -111 -118 0
-113 -120 -121 0
113 120 -121 0
113 -120 121 0
-113 120 121 0
-122 113 0
-122 120 0
122 -113 -120 0
-123 6 0
-123 96 0
123 -6 -96 0
-124 -77 0
-124 123 0
124 77 -123 0
-117 -124 -125 0
117 124 -125 0
117 -124 125 0
-117 124 125 0
-126 117 0
-126 124 0
126 -117 -124 0
-119 -126 -127 0
119 126 -127 0
119 -126 127 0
-119 126 127 0
-128 119 0
-128 126 0
128 -119 -126 0
-121 -128 -129 0
121 128 -129 0
121 -128 129 0
-121 128 129 0
-130 121 0
-130 128 0
130 -121 -128 0
-137 -127 0
-137 -125 0
137 127 125 0
-138 -129 0
-138 137 0
138 129 -137 0
127 -125 -139 0
-127 125 -139 0
-127 -125 139 0
127 125 139 0
-140 -127 0
-140 125 0
140 127 -125 0
-141 -140 0
-141 -127 0
141 140 127 0
141 129 -142 0
-141 -129 -142 0
-141 129 142 0
141 -129 142 0
-143 -141 0
-143 -129 0
143 141 129 0
-144 -143 0
-144 -129 0
144 143 129 0
-145 -132 0
-145 -131 0
145 132 131 0
-146 -133 0
-146 145 0
146 133 -145 0
-147 -135 0
-147 -134 0
147 135 134 0
-148 -136 0
-148 147 0
148 136 -147 0
-149 146 0
-149 148 0
149 -146 -148 0
-150 -131 0
-150 -125 0
150 131 125 0
125 -131 -151 0
-125 131 -151 0
-125 -131 151 0
125 131 151 0
-152 -132 0
-152 139 0
152 132 -139 0
-132 -139 -153 0
132 139 -153 0
132 -139 153 0
-132 139 153 0
-154 -153 0
-154 150 0
154 153 -150 0
-155 -154 0
-155 -152 0
155 154 152 0
-156 -133 0
-156 142 0
156 133 -142 0
-133 -142 -157 0
133 142 -157 0
133 -142 157 0
-133 142 157 0
-158 -157 0
-158 -155 0
158 157 155 0
-159 -158 0
-159 -156 0
159 158 156 0
-160 -134 0
-160 -125 0
160 134 125 0
125 -134 -161 0
-125 134 -161 0
-125 -134 161 0
125 134 161 0
-162 -135 0
-162 139 0
162 135 -139 0
-135 -139 -163 0
135 139 -163 0
135 -139 163 0
-135 139 163 0
-164 -163 0
-164 160 0
164 163 -160 0
-165 -164 0
-165 -162 0
165 164 162 0
-166 -136 0
-166 142 0
166 136 -142 0
-136 -142 -167 0
136 142 -167 0
136 -142 167 0
-136 142 167 0
-168 -167 0
-168 -165 0
168 167 165 0
-169 -168 0
-169 -166 0
169 168 166 0
-170 -159 0
-170 -138 0
170 159 138 0
-171 -169 0
-171 170 0
171 169 -170 0
-172 138 0
-172 149 0
172 -138 -149 0
-173 -172 0
-173 -171 0
173 172 171 0
-174 -131 0
-174 125 0
174 131 -125 0
-125 -131 -175 0
125 131 -175 0
125 -131 175 0
-125 131 175 0
-176 -132 0
-176 127 0
176 132 -127 0
-127 -132 -177 0
127 132 -177 0
127 -132 177 0
-127 132 177 0
-178 -177 0
-178 174 0
178 177 -174 0
-179 -178 0
-179 -176 0
179 178 176 0
-180 -133 0
-180 129 0
180 133 -129 0
-129 -133 -181 0
129 133 -181 0
129 -133 181 0
-129 133 181 0
-182 -181 0
-182 -179 0
182 181 179 0
-183 -182 0
-183 -180 0
183 182 180 0
-184 -183 0
-184 148 0
184 183 -148 0
-185 -173 0
-185 -77 0
185 173 77 0
-186 77 0
-186 184 0
186 -77 -184 0
-187 -186 0
-187 -185 0
187 186 185 0
-188 -187 0
-188 -95 0
188 187 95 0
188 0
