c mask-aware exact local-defect tokens; bidirectional gates
c input i 2 3 4
c input p 116 117 118
c input q 119 120 121
p cnf 173 523
1 0
-2 -3 -5 0
2 3 -5 0
2 -3 5 0
-2 3 5 0
-6 2 0
-6 3 0
6 -2 -3 0
-4 -6 -7 0
4 6 -7 0
4 -6 7 0
-4 6 7 0
-8 4 0
-8 6 0
8 -4 -6 0
-5 -7 -9 0
5 7 -9 0
5 -7 9 0
-5 7 9 0
-10 5 0
-10 7 0
10 -5 -7 0
-11 -5 0
-11 7 0
11 5 -7 0
-12 -11 0
-12 7 0
12 11 -7 0
2 -5 -13 0
-2 5 -13 0
-2 -5 13 0
2 5 13 0
-14 -2 0
-14 5 0
14 2 -5 0
-7 -14 -15 0
7 14 -15 0
7 -14 15 0
-7 14 15 0
-16 7 0
-16 14 0
16 -7 -14 0
-17 2 0
-17 5 0
17 -2 -5 0
-18 -17 0
-18 5 0
18 17 -5 0
-19 -18 0
-19 7 0
19 18 -7 0
-20 -19 0
-20 7 0
20 19 -7 0
-21 2 0
-21 20 0
21 -2 -20 0
-22 -20 0
-22 -2 0
22 20 2 0
-23 -22 0
-23 -21 0
23 22 21 0
-24 13 0
-24 20 0
24 -13 -20 0
-25 -20 0
-25 5 0
25 20 -5 0
-26 -25 0
-26 -24 0
26 25 24 0
-27 15 0
-27 20 0
27 -15 -20 0
-28 -20 0
-28 7 0
28 20 -7 0
-29 -28 0
-29 -27 0
29 28 27 0
-30 -16 0
-30 20 0
30 16 -20 0
-31 -4 0
-31 -3 0
31 4 3 0
-32 -26 0
-32 23 0
32 26 -23 0
-33 -32 0
-33 -26 0
33 32 26 0
-34 -33 0
-34 -29 0
34 33 29 0
-35 -34 0
-35 -29 0
35 34 29 0
-36 -35 0
-36 31 0
36 35 -31 0
-37 -2 0
-37 3 0
37 2 -3 0
-38 -37 0
-38 3 0
38 37 -3 0
-39 -38 0
-39 4 0
39 38 -4 0
-40 -39 0
-40 4 0
40 39 -4 0
-41 -40 0
-41 -31 0
41 40 31 0
-42 -3 0
-42 -2 0
42 3 2 0
-43 41 0
-43 42 0
43 -41 -42 0
-44 -35 0
-44 43 0
44 35 -43 0
-36 -44 -45 0
36 44 -45 0
36 -44 45 0
-36 44 45 0
-46 36 0
-46 44 0
46 -36 -44 0
-47 -3 0
-47 2 0
47 3 -2 0
-48 41 0
-48 47 0
48 -41 -47 0
-49 -35 0
-49 48 0
49 35 -48 0
-45 -49 -50 0
45 49 -50 0
45 -49 50 0
-45 49 50 0
-51 45 0
-51 49 0
51 -45 -49 0
-46 -51 -52 0
46 51 -52 0
46 -51 52 0
-46 51 52 0
-53 46 0
-53 51 0
53 -46 -51 0
-54 37 0
-54 41 0
54 -37 -41 0
-55 -35 0
-55 54 0
55 35 -54 0
-50 -55 -56 0
50 55 -56 0
50 -55 56 0
-50 55 56 0
-57 50 0
-57 55 0
57 -50 -55 0
-52 -57 -58 0
52 57 -58 0
52 -57 58 0
-52 57 58 0
-59 52 0
-59 57 0
59 -52 -57 0
-53 -59 -60 0
53 59 -60 0
53 -59 60 0
-53 59 60 0
-61 53 0
-61 59 0
61 -53 -59 0
-62 6 0
-62 41 0
62 -6 -41 0
-63 -35 0
-63 62 0
63 35 -62 0
-56 -63 -64 0
56 63 -64 0
56 -63 64 0
-56 63 64 0
-65 56 0
-65 63 0
65 -56 -63 0
-58 -65 -66 0
58 65 -66 0
58 -65 66 0
-58 65 66 0
-67 58 0
-67 65 0
67 -58 -65 0
-60 -67 -68 0
60 67 -68 0
60 -67 68 0
-60 67 68 0
-69 60 0
-69 67 0
69 -60 -67 0
-70 -38 0
-70 -4 0
70 38 4 0
-71 -3 0
-71 4 0
71 3 -4 0
-72 -71 0
-72 4 0
72 71 -4 0
-73 -72 0
-73 -70 0
73 72 70 0
-3 -4 -74 0
3 4 -74 0
3 -4 74 0
-3 4 74 0
-75 3 0
-75 4 0
75 -3 -4 0
-76 2 0
-76 72 0
76 -2 -72 0
-77 -72 0
-77 2 0
77 72 -2 0
-78 -77 0
-78 -76 0
78 77 76 0
-79 -3 0
-79 72 0
79 3 -72 0
-80 -72 0
-80 3 0
80 72 -3 0
-81 -80 0
-81 -79 0
81 80 79 0
-82 72 0
-82 74 0
82 -72 -74 0
-83 -72 0
-83 4 0
83 72 -4 0
-84 -83 0
-84 -82 0
84 83 82 0
-85 -75 0
-85 72 0
85 75 -72 0
-86 -81 0
-86 78 0
86 81 -78 0
-87 84 0
-87 86 0
87 -84 -86 0
-88 23 0
-88 26 0
88 -23 -26 0
-89 29 0
-89 88 0
89 -29 -88 0
-90 26 0
-90 29 0
90 -26 -29 0
-91 -90 0
-91 29 0
91 90 -29 0
-92 -91 0
-92 -89 0
92 91 89 0
-93 73 0
-93 87 0
93 -73 -87 0
-94 -92 0
-94 93 0
94 92 -93 0
-64 -94 -95 0
64 94 -95 0
64 -94 95 0
-64 94 95 0
-96 64 0
-96 94 0
96 -64 -94 0
-66 -96 -97 0
66 96 -97 0
66 -96 97 0
-66 96 97 0
-98 66 0
-98 96 0
98 -66 -96 0
-68 -98 -99 0
68 98 -99 0
68 -98 99 0
-68 98 99 0
-100 68 0
-100 98 0
100 -68 -98 0
-101 -4 0
-101 42 0
101 4 -42 0
-102 -101 0
-102 -72 0
102 101 72 0
-103 -33 0
-103 29 0
103 33 -29 0
-104 -29 0
-104 26 0
104 29 -26 0
-105 -104 0
-105 -29 0
105 104 29 0
-106 -105 0
-106 -29 0
106 105 29 0
-107 -106 0
-107 -103 0
107 106 103 0
-108 -2 0
-108 102 0
108 2 -102 0
-109 -107 0
-109 108 0
109 107 -108 0
-95 -109 -110 0
95 109 -110 0
95 -109 110 0
-95 109 110 0
-111 95 0
-111 109 0
111 -95 -109 0
-97 -111 -112 0
97 111 -112 0
97 -111 112 0
-97 111 112 0
-113 97 0
-113 111 0
113 -97 -111 0
-99 -113 -114 0
99 113 -114 0
99 -113 114 0
-99 113 114 0
-115 99 0
-115 113 0
115 -99 -113 0
-122 -112 0
-122 -110 0
122 112 110 0
-123 -114 0
-123 122 0
123 114 -122 0
112 -110 -124 0
-112 110 -124 0
-112 -110 124 0
112 110 124 0
-125 -112 0
-125 110 0
125 112 -110 0
-126 -125 0
-126 -112 0
126 125 112 0
126 114 -127 0
-126 -114 -127 0
-126 114 127 0
126 -114 127 0
-128 -126 0
-128 -114 0
128 126 114 0
-129 -128 0
-129 -114 0
129 128 114 0
-130 -117 0
-130 -116 0
130 117 116 0
-131 -118 0
-131 130 0
131 118 -130 0
-132 -120 0
-132 -119 0
132 120 119 0
-133 -121 0
-133 132 0
133 121 -132 0
-134 131 0
-134 133 0
134 -131 -133 0
-135 -116 0
-135 -110 0
135 116 110 0
110 -116 -136 0
-110 116 -136 0
-110 -116 136 0
110 116 136 0
-137 -117 0
-137 124 0
137 117 -124 0
-117 -124 -138 0
117 124 -138 0
117 -124 138 0
-117 124 138 0
-139 -138 0
-139 135 0
139 138 -135 0
-140 -139 0
-140 -137 0
140 139 137 0
-141 -118 0
-141 127 0
141 118 -127 0
-118 -127 -142 0
118 127 -142 0
118 -127 142 0
-118 127 142 0
-143 -142 0
-143 -140 0
143 142 140 0
-144 -143 0
-144 -141 0
144 143 141 0
-145 -119 0
-145 -110 0
145 119 110 0
110 -119 -146 0
-110 119 -146 0
-110 -119 146 0
110 119 146 0
-147 -120 0
-147 124 0
147 120 -124 0
-120 -124 -148 0
120 124 -148 0
120 -124 148 0
-120 124 148 0
-149 -148 0
-149 145 0
149 148 -145 0
-150 -149 0
-150 -147 0
150 149 147 0
-151 -121 0
-151 127 0
151 121 -127 0
-121 -127 -152 0
121 127 -152 0
121 -127 152 0
-121 127 152 0
-153 -152 0
-153 -150 0
153 152 150 0
-154 -153 0
-154 -151 0
154 153 151 0
-155 -144 0
-155 -123 0
155 144 123 0
-156 -154 0
-156 155 0
156 154 -155 0
-157 123 0
-157 134 0
157 -123 -134 0
-158 -157 0
-158 -156 0
158 157 156 0
-159 -116 0
-159 110 0
159 116 -110 0
-110 -116 -160 0
110 116 -160 0
110 -116 160 0
-110 116 160 0
-161 -117 0
-161 112 0
161 117 -112 0
-112 -117 -162 0
112 117 -162 0
112 -117 162 0
-112 117 162 0
-163 -162 0
-163 159 0
163 162 -159 0
-164 -163 0
-164 -161 0
164 163 161 0
-165 -118 0
-165 114 0
165 118 -114 0
-114 -118 -166 0
114 118 -166 0
114 -118 166 0
-114 118 166 0
-167 -166 0
-167 -164 0
167 166 164 0
-168 -167 0
-168 -165 0
168 167 165 0
-169 -168 0
-169 133 0
169 168 -133 0
-170 -158 0
-170 -35 0
170 158 35 0
-171 35 0
-171 169 0
171 -35 -169 0
-172 -171 0
-172 -170 0
172 171 170 0
-173 -172 0
-173 -40 0
173 172 40 0
173 0
