c mask-aware exact local-defect tokens; bidirectional gates
c input i 2 3 4
c input p 101 102
c input q 103 104
p cnf 131 385
1 0
-2 -3 -5 0
2 3 -5 0
2 -3 5 0
-2 3 5 0
-6 2 0
-6 3 0
6 -2 -3 0
-4 -6 -7 0
4 6 -7 0
4 -6 7 0
-4 6 7 0
-8 4 0
-8 6 0
8 -4 -6 0
-5 -7 -9 0
5 7 -9 0
5 -7 9 0
-5 7 9 0
-10 5 0
-10 7 0
10 -5 -7 0
-11 -5 0
-11 7 0
11 5 -7 0
-12 -11 0
-12 7 0
12 11 -7 0
2 -5 -13 0
-2 5 -13 0
-2 -5 13 0
2 5 13 0
-14 -2 0
-14 5 0
14 2 -5 0
-7 -14 -15 0
7 14 -15 0
7 -14 15 0
-7 14 15 0
-16 7 0
-16 14 0
16 -7 -14 0
-17 2 0
-17 5 0
17 -2 -5 0
-18 -17 0
-18 5 0
18 17 -5 0
-19 -18 0
-19 7 0
19 18 -7 0
-20 -19 0
-20 7 0
20 19 -7 0
-21 2 0
-21 20 0
21 -2 -20 0
-22 -20 0
-22 -2 0
22 20 2 0
-23 -22 0
-23 -21 0
23 22 21 0
-24 13 0
-24 20 0
24 -13 -20 0
-25 -20 0
-25 5 0
25 20 -5 0
-26 -25 0
-26 -24 0
26 25 24 0
-27 15 0
-27 20 0
27 -15 -20 0
-28 -20 0
-28 7 0
28 20 -7 0
-29 -28 0
-29 -27 0
29 28 27 0
-30 -16 0
-30 20 0
30 16 -20 0
-31 23 0
-31 26 0
31 -23 -26 0
-32 29 0
-32 31 0
32 -29 -31 0
-33 26 0
-33 29 0
33 -26 -29 0
-34 -32 0
-34 33 0
34 32 -33 0
-35 -29 0
-35 31 0
35 29 -31 0
-36 -35 0
-36 -29 0
36 35 29 0
-37 -36 0
-37 -29 0
37 36 29 0
-38 -37 0
-38 -34 0
38 37 34 0
-39 -29 0
-39 26 0
39 29 -26 0
-40 -39 0
-40 -29 0
40 39 29 0
-41 -26 0
-41 23 0
41 26 -23 0
-42 -41 0
-42 -26 0
42 41 26 0
-43 -42 0
-43 -29 0
43 42 29 0
-44 -43 0
-44 -29 0
44 43 29 0
-45 -44 0
-45 40 0
45 44 -40 0
-46 -45 0
-46 38 0
46 45 -38 0
-47 -4 0
-47 -3 0
47 4 3 0
-48 -2 0
-48 3 0
48 2 -3 0
-49 -48 0
-49 3 0
49 48 -3 0
-50 -49 0
-50 4 0
50 49 -4 0
-51 -50 0
-51 4 0
51 50 -4 0
-52 -51 0
-52 -47 0
52 51 47 0
4 -3 -53 0
-4 3 -53 0
-4 -3 53 0
4 3 53 0
-54 -4 0
-54 3 0
54 4 -3 0
-55 -54 0
-55 -4 0
55 54 4 0
3 -2 -56 0
-3 2 -56 0
-3 -2 56 0
3 2 56 0
-57 -3 0
-57 2 0
57 3 -2 0
-58 -57 0
-58 -3 0
58 57 3 0
58 -4 -59 0
-58 4 -59 0
-58 -4 59 0
58 4 59 0
-60 -58 0
-60 4 0
60 58 -4 0
-61 -3 0
-61 -2 0
61 3 2 0
-62 4 0
-62 61 0
62 -4 -61 0
-63 -62 0
-63 4 0
63 62 -4 0
-64 -2 0
-64 63 0
64 2 -63 0
-65 -63 0
-65 2 0
65 63 -2 0
-66 -65 0
-66 -64 0
66 65 64 0
-67 56 0
-67 63 0
67 -56 -63 0
-68 -63 0
-68 3 0
68 63 -3 0
-69 -68 0
-69 -67 0
69 68 67 0
-70 59 0
-70 63 0
70 -59 -63 0
-71 -63 0
-71 4 0
71 63 -4 0
-72 -71 0
-72 -70 0
72 71 70 0
-73 -60 0
-73 63 0
73 60 -63 0
-74 -69 0
-74 -66 0
74 69 66 0
-75 72 0
-75 74 0
75 -72 -74 0
-76 52 0
-76 75 0
76 -52 -75 0
-77 -46 0
-77 76 0
77 46 -76 0
-78 66 0
-78 69 0
78 -66 -69 0
-79 -72 0
-79 78 0
79 72 -78 0
-80 52 0
-80 79 0
80 -52 -79 0
-81 -46 0
-81 80 0
81 46 -80 0
-82 -81 0
-82 -77 0
82 81 77 0
-83 -46 0
-83 82 0
83 46 -82 0
-3 -4 -84 0
3 4 -84 0
3 -4 84 0
-3 4 84 0
-85 3 0
-85 4 0
85 -3 -4 0
-86 -3 0
-86 4 0
86 3 -4 0
-87 -86 0
-87 4 0
87 86 -4 0
-88 2 0
-88 87 0
88 -2 -87 0
-89 -87 0
-89 2 0
89 87 -2 0
-90 -89 0
-90 -88 0
90 89 88 0
-91 -3 0
-91 87 0
91 3 -87 0
-92 -87 0
-92 3 0
92 87 -3 0
-93 -92 0
-93 -91 0
93 92 91 0
-94 84 0
-94 87 0
94 -84 -87 0
-95 -87 0
-95 4 0
95 87 -4 0
-96 -95 0
-96 -94 0
96 95 94 0
-97 -85 0
-97 87 0
97 85 -87 0
-98 -93 0
-98 -90 0
98 93 90 0
-99 96 0
-99 98 0
99 -96 -98 0
-100 -44 0
-100 -32 0
100 44 32 0
-105 -102 0
-105 -101 0
105 102 101 0
-106 -104 0
-106 -103 0
106 104 103 0
-107 105 0
-107 106 0
107 -105 -106 0
-108 -101 0
-108 -83 0
108 101 83 0
83 -101 -109 0
-83 101 -109 0
-83 -101 109 0
83 101 109 0
-110 -102 0
-110 -83 0
110 102 83 0
83 -102 -111 0
-83 102 -111 0
-83 -102 111 0
83 102 111 0
-112 -111 0
-112 108 0
112 111 -108 0
-113 -112 0
-113 -110 0
113 112 110 0
-114 -103 0
-114 -83 0
114 103 83 0
83 -103 -115 0
-83 103 -115 0
-83 -103 115 0
83 103 115 0
-116 -104 0
-116 -83 0
116 104 83 0
83 -104 -117 0
-83 104 -117 0
-83 -104 117 0
83 104 117 0
-118 -117 0
-118 114 0
118 117 -114 0
-119 -118 0
-119 -116 0
119 118 116 0
-120 -113 0
-120 83 0
120 113 -83 0
-121 -119 0
-121 120 0
121 119 -120 0
-122 -83 0
-122 107 0
122 83 -107 0
-123 -122 0
-123 -121 0
123 122 121 0
-124 -101 0
-124 83 0
124 101 -83 0
-83 -101 -125 0
83 101 -125 0
83 -101 125 0
-83 101 125 0
-126 -102 0
-126 124 0
126 102 -124 0
-127 106 0
-127 126 0
127 -106 -126 0
-128 -123 0
-128 -46 0
128 123 46 0
-129 46 0
-129 127 0
129 -46 -127 0
-130 -129 0
-130 -128 0
130 129 128 0
-131 -130 0
-131 -51 0
131 130 51 0
131 0
