c mask-aware exact local-defect tokens; bidirectional gates
c input i 2 3 4
c input p 55
c input q 56
p cnf 76 220
1 0
-2 -3 -5 0
2 3 -5 0
2 -3 5 0
-2 3 5 0
-6 2 0
-6 3 0
6 -2 -3 0
-4 -6 -7 0
4 6 -7 0
4 -6 7 0
-4 6 7 0
-8 4 0
-8 6 0
8 -4 -6 0
-5 -7 -9 0
5 7 -9 0
5 -7 9 0
-5 7 9 0
-10 5 0
-10 7 0
10 -5 -7 0
-11 -5 0
-11 7 0
11 5 -7 0
-12 -11 0
-12 7 0
12 11 -7 0
2 -5 -13 0
-2 5 -13 0
-2 -5 13 0
2 5 13 0
-14 -2 0
-14 5 0
14 2 -5 0
-7 -14 -15 0
7 14 -15 0
7 -14 15 0
-7 14 15 0
-16 7 0
-16 14 0
16 -7 -14 0
-17 2 0
-17 5 0
17 -2 -5 0
-18 -17 0
-18 5 0
18 17 -5 0
-19 -18 0
-19 7 0
19 18 -7 0
-20 -19 0
-20 7 0
20 19 -7 0
-21 2 0
-21 20 0
21 -2 -20 0
-22 -20 0
-22 -2 0
22 20 2 0
-23 -22 0
-23 -21 0
23 22 21 0
-24 13 0
-24 20 0
24 -13 -20 0
-25 -20 0
-25 5 0
25 20 -5 0
-26 -25 0
-26 -24 0
26 25 24 0
-27 15 0
-27 20 0
27 -15 -20 0
-28 -20 0
-28 7 0
28 20 -7 0
-29 -28 0
-29 -27 0
29 28 27 0
-30 -16 0
-30 20 0
30 16 -20 0
-31 -29 0
-31 -23 0
31 29 23 0
-32 -23 0
-32 29 0
32 23 -29 0
-33 -32 0
-33 -31 0
33 32 31 0
-34 -29 0
-34 -26 0
34 29 26 0
-35 -26 0
-35 29 0
35 26 -29 0
-36 -35 0
-36 -34 0
36 35 34 0
-37 29 0
-37 33 0
37 -29 -33 0
-38 36 0
-38 37 0
38 -36 -37 0
-39 33 0
-39 36 0
39 -33 -36 0
-40 -38 0
-40 39 0
40 38 -39 0
-41 -33 0
-41 29 0
41 33 -29 0
-42 -41 0
-42 -33 0
42 41 33 0
-43 -42 0
-43 36 0
43 42 -36 0
-44 -36 0
-44 37 0
44 36 -37 0
-45 -44 0
-45 -36 0
45 44 36 0
-46 -45 0
-46 -43 0
46 45 43 0
-47 -46 0
-47 -40 0
47 46 40 0
-48 -36 0
-48 33 0
48 36 -33 0
-49 -48 0
-49 -36 0
49 48 36 0
-50 -42 0
-50 -36 0
50 42 36 0
-51 -50 0
-51 -36 0
51 50 36 0
-52 -51 0
-52 49 0
52 51 -49 0
-53 -52 0
-53 47 0
53 52 -47 0
-54 -53 0
-54 -38 0
54 53 38 0
-57 -56 0
-57 -55 0
57 56 55 0
-58 -55 0
-58 -54 0
58 55 54 0
54 -55 -59 0
-54 55 -59 0
-54 -55 59 0
54 55 59 0
-60 -56 0
-60 -54 0
60 56 54 0
54 -56 -61 0
-54 56 -61 0
-54 -56 61 0
54 56 61 0
-62 54 0
-62 58 0
62 -54 -58 0
-63 60 0
-63 62 0
63 -60 -62 0
-64 -54 0
-64 57 0
64 54 -57 0
-65 -64 0
-65 -63 0
65 64 63 0
-66 -55 0
-66 54 0
66 55 -54 0
-54 -55 -67 0
54 55 -67 0
54 -55 67 0
-54 55 67 0
-68 -56 0
-68 66 0
68 56 -66 0
-69 -65 0
-69 54 0
69 65 -54 0
-70 -54 0
-70 68 0
70 54 -68 0
-71 -70 0
-71 -69 0
71 70 69 0
-72 -2 0
-72 3 0
72 2 -3 0
-73 -72 0
-73 3 0
73 72 -3 0
-74 -73 0
-74 4 0
74 73 -4 0
-75 -74 0
-75 4 0
75 74 -4 0
-76 -75 0
-76 -71 0
76 75 71 0
76 0
