c mask-aware exact local-defect tokens; bidirectional gates
c input i 2 3 4
c input p 190 191 192 193
c input q 194 195 196 197
p cnf 273 837
1 0
-2 -3 -5 0
2 3 -5 0
2 -3 5 0
-2 3 5 0
-6 2 0
-6 3 0
6 -2 -3 0
-4 -6 -7 0
4 6 -7 0
4 -6 7 0
-4 6 7 0
-8 4 0
-8 6 0
8 -4 -6 0
-5 -7 -9 0
5 7 -9 0
5 -7 9 0
-5 7 9 0
-10 5 0
-10 7 0
10 -5 -7 0
-11 -5 0
-11 7 0
11 5 -7 0
-12 -11 0
-12 7 0
12 11 -7 0
2 -5 -13 0
-2 5 -13 0
-2 -5 13 0
2 5 13 0
-14 -2 0
-14 5 0
14 2 -5 0
-7 -14 -15 0
7 14 -15 0
7 -14 15 0
-7 14 15 0
-16 7 0
-16 14 0
16 -7 -14 0
-17 2 0
-17 5 0
17 -2 -5 0
-18 -17 0
-18 5 0
18 17 -5 0
-19 -18 0
-19 7 0
19 18 -7 0
-20 -19 0
-20 7 0
20 19 -7 0
-21 2 0
-21 20 0
21 -2 -20 0
-22 -20 0
-22 -2 0
22 20 2 0
-23 -22 0
-23 -21 0
23 22 21 0
-24 13 0
-24 20 0
24 -13 -20 0
-25 -20 0
-25 5 0
25 20 -5 0
-26 -25 0
-26 -24 0
26 25 24 0
-27 15 0
-27 20 0
27 -15 -20 0
-28 -20 0
-28 7 0
28 20 -7 0
-29 -28 0
-29 -27 0
29 28 27 0
-30 -16 0
-30 20 0
30 16 -20 0
-31 -29 0
-31 -23 0
31 29 23 0
-32 -23 0
-32 29 0
32 23 -29 0
-33 -32 0
-33 -31 0
33 32 31 0
-34 -29 0
-34 -26 0
34 29 26 0
-35 -26 0
-35 29 0
35 26 -29 0
-36 -35 0
-36 -34 0
36 35 34 0
-37 -4 0
-37 -3 0
37 4 3 0
-3 -4 -38 0
3 4 -38 0
3 -4 38 0
-3 4 38 0
-39 3 0
-39 4 0
39 -3 -4 0
-40 -3 0
-40 4 0
40 3 -4 0
-41 -40 0
-41 4 0
41 40 -4 0
-42 -3 0
-42 41 0
42 3 -41 0
-43 -41 0
-43 3 0
43 41 -3 0
-44 -43 0
-44 -42 0
44 43 42 0
-45 38 0
-45 41 0
45 -38 -41 0
-46 -41 0
-46 4 0
46 41 -4 0
-47 -46 0
-47 -45 0
47 46 45 0
-48 -39 0
-48 41 0
48 39 -41 0
44 -2 -49 0
-44 2 -49 0
-44 -2 49 0
44 2 49 0
-50 -44 0
-50 2 0
50 44 -2 0
-47 -50 -51 0
47 50 -51 0
47 -50 51 0
-47 50 51 0
-52 47 0
-52 50 0
52 -47 -50 0
-53 -52 0
-53 47 0
53 52 -47 0
-54 -44 0
-54 -2 0
54 44 2 0
-55 -54 0
-55 -44 0
55 54 44 0
-56 -55 0
-56 47 0
56 55 -47 0
-57 -56 0
-57 -2 0
57 56 2 0
-58 2 0
-58 56 0
58 -2 -56 0
-59 -58 0
-59 -57 0
59 58 57 0
-60 -56 0
-60 49 0
60 56 -49 0
-61 -44 0
-61 56 0
61 44 -56 0
-62 -61 0
-62 -60 0
62 61 60 0
-63 -56 0
-63 51 0
63 56 -51 0
-64 -47 0
-64 56 0
64 47 -56 0
-65 -64 0
-65 -63 0
65 64 63 0
-66 59 0
-66 62 0
66 -59 -62 0
-67 33 0
-67 36 0
67 -33 -36 0
-68 29 0
-68 33 0
68 -29 -33 0
-69 -36 0
-69 68 0
69 36 -68 0
-70 -69 0
-70 -36 0
70 69 36 0
-71 -70 0
-71 -67 0
71 70 67 0
-72 -36 0
-72 33 0
72 36 -33 0
-73 -72 0
-73 -36 0
73 72 36 0
-74 -33 0
-74 29 0
74 33 -29 0
-75 -74 0
-75 -33 0
75 74 33 0
-76 -75 0
-76 -36 0
76 75 36 0
-77 -76 0
-77 -36 0
77 76 36 0
-78 -77 0
-78 73 0
78 77 -73 0
-79 -78 0
-79 -71 0
79 78 71 0
-80 37 0
-80 66 0
80 -37 -66 0
-81 -79 0
-81 80 0
81 79 -80 0
-82 -59 0
-82 62 0
82 59 -62 0
-83 37 0
-83 82 0
83 -37 -82 0
-84 -79 0
-84 83 0
84 79 -83 0
-81 -84 -85 0
81 84 -85 0
81 -84 85 0
-81 84 85 0
-86 81 0
-86 84 0
86 -81 -84 0
-87 -62 0
-87 59 0
87 62 -59 0
-88 37 0
-88 87 0
88 -37 -87 0
-89 -79 0
-89 88 0
89 79 -88 0
-85 -89 -90 0
85 89 -90 0
85 -89 90 0
-85 89 90 0
-91 85 0
-91 89 0
91 -85 -89 0
-86 -91 -92 0
86 91 -92 0
86 -91 92 0
-86 91 92 0
-93 86 0
-93 91 0
93 -86 -91 0
-94 -2 0
-94 3 0
94 2 -3 0
-95 -94 0
-95 3 0
95 94 -3 0
-96 -95 0
-96 4 0
96 95 -4 0
-97 -96 0
-97 4 0
97 96 -4 0
-98 -97 0
-98 -37 0
98 97 37 0
4 -3 -99 0
-4 3 -99 0
-4 -3 99 0
4 3 99 0
-100 -4 0
-100 3 0
100 4 -3 0
-101 -100 0
-101 -4 0
101 100 4 0
3 -2 -102 0
-3 2 -102 0
-3 -2 102 0
3 2 102 0
-103 -3 0
-103 2 0
103 3 -2 0
-104 -103 0
-104 -3 0
104 103 3 0
104 -4 -105 0
-104 4 -105 0
-104 -4 105 0
104 4 105 0
-106 -104 0
-106 4 0
106 104 -4 0
-107 -3 0
-107 -2 0
107 3 2 0
-108 4 0
-108 107 0
108 -4 -107 0
-109 -108 0
-109 4 0
109 108 -4 0
-110 -2 0
-110 109 0
110 2 -109 0
-111 -109 0
-111 2 0
111 109 -2 0
-112 -111 0
-112 -110 0
112 111 110 0
-113 102 0
-113 109 0
113 -102 -109 0
-114 -109 0
-114 3 0
114 109 -3 0
-115 -114 0
-115 -113 0
115 114 113 0
-116 105 0
-116 109 0
116 -105 -109 0
-117 -109 0
-117 4 0
117 109 -4 0
-118 -117 0
-118 -116 0
118 117 116 0
-119 -106 0
-119 109 0
119 106 -109 0
-120 112 0
-120 115 0
120 -112 -115 0
-121 118 0
-121 120 0
121 -118 -120 0
-122 -75 0
-122 36 0
122 75 -36 0
-123 -67 0
-123 122 0
123 67 -122 0
-124 98 0
-124 121 0
124 -98 -121 0
-125 123 0
-125 124 0
125 -123 -124 0
-90 -125 -126 0
90 125 -126 0
90 -125 126 0
-90 125 126 0
-127 90 0
-127 125 0
127 -90 -125 0
-92 -127 -128 0
92 127 -128 0
92 -127 128 0
-92 127 128 0
-129 92 0
-129 127 0
129 -92 -127 0
-93 -129 -130 0
93 129 -130 0
93 -129 130 0
-93 129 130 0
-131 93 0
-131 129 0
131 -93 -129 0
-132 -122 0
-132 -70 0
132 122 70 0
-133 -132 0
-133 -78 0
133 132 78 0
-134 -133 0
-134 124 0
134 133 -124 0
-126 -134 -135 0
126 134 -135 0
126 -134 135 0
-126 134 135 0
-136 126 0
-136 134 0
136 -126 -134 0
-128 -136 -137 0
128 136 -137 0
128 -136 137 0
-128 136 137 0
-138 128 0
-138 136 0
138 -128 -136 0
-130 -138 -139 0
130 138 -139 0
130 -138 139 0
-130 138 139 0
-140 130 0
-140 138 0
140 -130 -138 0
-131 -140 -141 0
131 140 -141 0
131 -140 141 0
-131 140 141 0
-142 131 0
-142 140 0
142 -131 -140 0
-143 -112 0
-143 115 0
143 112 -115 0
-144 118 0
-144 143 0
144 -118 -143 0
-145 98 0
-145 144 0
145 -98 -144 0
-146 -79 0
-146 145 0
146 79 -145 0
-135 -146 -147 0
135 146 -147 0
135 -146 147 0
-135 146 147 0
-148 135 0
-148 146 0
148 -135 -146 0
-137 -148 -149 0
137 148 -149 0
137 -148 149 0
-137 148 149 0
-150 137 0
-150 148 0
150 -137 -148 0
-139 -150 -151 0
139 150 -151 0
139 -150 151 0
-139 150 151 0
-152 139 0
-152 150 0
152 -139 -150 0
-141 -152 -153 0
141 152 -153 0
141 -152 153 0
-141 152 153 0
-154 141 0
-154 152 0
154 -141 -152 0
-155 -115 0
-155 112 0
155 115 -112 0
-156 118 0
-156 155 0
156 -118 -155 0
-157 98 0
-157 156 0
157 -98 -156 0
-158 -79 0
-158 157 0
158 79 -157 0
-147 -158 -159 0
147 158 -159 0
147 -158 159 0
-147 158 159 0
-160 147 0
-160 158 0
160 -147 -158 0
-149 -160 -161 0
149 160 -161 0
149 -160 161 0
-149 160 161 0
-162 149 0
-162 160 0
162 -149 -160 0
-151 -162 -163 0
151 162 -163 0
151 -162 163 0
-151 162 163 0
-164 151 0
-164 162 0
164 -151 -162 0
-153 -164 -165 0
153 164 -165 0
153 -164 165 0
-153 164 165 0
-166 153 0
-166 164 0
166 -153 -164 0
-167 -115 0
-167 -112 0
167 115 112 0
-168 118 0
-168 167 0
168 -118 -167 0
-169 98 0
-169 168 0
169 -98 -168 0
-170 -79 0
-170 169 0
170 79 -169 0
-159 -170 -171 0
159 170 -171 0
159 -170 171 0
-159 170 171 0
-172 159 0
-172 170 0
172 -159 -170 0
-161 -172 -173 0
161 172 -173 0
161 -172 173 0
-161 172 173 0
-174 161 0
-174 172 0
174 -161 -172 0
-163 -174 -175 0
163 174 -175 0
163 -174 175 0
-163 174 175 0
-176 163 0
-176 174 0
176 -163 -174 0
-165 -176 -177 0
165 176 -177 0
165 -176 177 0
-165 176 177 0
-178 165 0
-178 176 0
178 -165 -176 0
-179 -118 0
-179 120 0
179 118 -120 0
-180 98 0
-180 179 0
180 -98 -179 0
-181 -79 0
-181 180 0
181 79 -180 0
-171 -181 -182 0
171 181 -182 0
171 -181 182 0
-171 181 182 0
-183 171 0
-183 181 0
183 -171 -181 0
-173 -183 -184 0
173 183 -184 0
173 -183 184 0
-173 183 184 0
-185 173 0
-185 183 0
185 -173 -183 0
-175 -185 -186 0
175 185 -186 0
175 -185 186 0
-175 185 186 0
-187 175 0
-187 185 0
187 -175 -185 0
-177 -187 -188 0
177 187 -188 0
177 -187 188 0
-177 187 188 0
-189 177 0
-189 187 0
189 -177 -187 0
-198 36 0
-198 68 0
198 -36 -68 0
-199 -77 0
-199 -67 0
199 77 67 0
-200 -199 0
-200 -198 0
200 199 198 0
-201 -73 0
-201 70 0
201 73 -70 0
-202 -201 0
-202 -67 0
202 201 67 0
-203 -200 0
-203 202 0
203 200 -202 0
-204 -184 0
-204 -182 0
204 184 182 0
-205 -186 0
-205 204 0
205 186 -204 0
-206 -188 0
-206 205 0
206 188 -205 0
184 -182 -207 0
-184 182 -207 0
-184 -182 207 0
184 182 207 0
-208 -184 0
-208 182 0
208 184 -182 0
-209 -208 0
-209 -184 0
209 208 184 0
209 186 -210 0
-209 -186 -210 0
-209 186 210 0
209 -186 210 0
-211 -209 0
-211 -186 0
211 209 186 0
-212 -211 0
-212 -186 0
212 211 186 0
212 188 -213 0
-212 -188 -213 0
-212 188 213 0
212 -188 213 0
-214 -212 0
-214 -188 0
214 212 188 0
-215 -214 0
-215 -188 0
215 214 188 0
-216 -191 0
-216 -190 0
216 191 190 0
-217 -192 0
-217 216 0
217 192 -216 0
-218 -193 0
-218 217 0
218 193 -217 0
-219 -195 0
-219 -194 0
219 195 194 0
-220 -196 0
-220 219 0
220 196 -219 0
-221 -197 0
-221 220 0
221 197 -220 0
-222 218 0
-222 221 0
222 -218 -221 0
-223 -190 0
-223 -182 0
223 190 182 0
182 -190 -224 0
-182 190 -224 0
-182 -190 224 0
182 190 224 0
-225 -191 0
-225 207 0
225 191 -207 0
-191 -207 -226 0
191 207 -226 0
191 -207 226 0
-191 207 226 0
-227 -226 0
-227 223 0
227 226 -223 0
-228 -227 0
-228 -225 0
228 227 225 0
-229 -192 0
-229 210 0
229 192 -210 0
-192 -210 -230 0
192 210 -230 0
192 -210 230 0
-192 210 230 0
-231 -230 0
-231 -228 0
231 230 228 0
-232 -231 0
-232 -229 0
232 231 229 0
-233 -193 0
-233 213 0
233 193 -213 0
-193 -213 -234 0
193 213 -234 0
193 -213 234 0
-193 213 234 0
-235 -234 0
-235 -232 0
235 234 232 0
-236 -235 0
-236 -233 0
236 235 233 0
-237 -194 0
-237 -182 0
237 194 182 0
182 -194 -238 0
-182 194 -238 0
-182 -194 238 0
182 194 238 0
-239 -195 0
-239 207 0
239 195 -207 0
-195 -207 -240 0
195 207 -240 0
195 -207 240 0
-195 207 240 0
-241 -240 0
-241 237 0
241 240 -237 0
-242 -241 0
-242 -239 0
242 241 239 0
-243 -196 0
-243 210 0
243 196 -210 0
-196 -210 -244 0
196 210 -244 0
196 -210 244 0
-196 210 244 0
-245 -244 0
-245 -242 0
245 244 242 0
-246 -245 0
-246 -243 0
246 245 243 0
-247 -197 0
-247 213 0
247 197 -213 0
-197 -213 -248 0
197 213 -248 0
197 -213 248 0
-197 213 248 0
-249 -248 0
-249 -246 0
249 248 246 0
-250 -249 0
-250 -247 0
250 249 247 0
-251 -236 0
-251 -206 0
251 236 206 0
-252 -250 0
-252 251 0
252 250 -251 0
-253 206 0
-253 222 0
253 -206 -222 0
-254 -253 0
-254 -252 0
254 253 252 0
-255 -190 0
-255 182 0
255 190 -182 0
-182 -190 -256 0
182 190 -256 0
182 -190 256 0
-182 190 256 0
-257 -191 0
-257 184 0
257 191 -184 0
-184 -191 -258 0
184 191 -258 0
184 -191 258 0
-184 191 258 0
-259 -258 0
-259 255 0
259 258 -255 0
-260 -259 0
-260 -257 0
260 259 257 0
-261 -192 0
-261 186 0
261 192 -186 0
-186 -192 -262 0
186 192 -262 0
186 -192 262 0
-186 192 262 0
-263 -262 0
-263 -260 0
263 262 260 0
-264 -263 0
-264 -261 0
264 263 261 0
-265 -193 0
-265 188 0
265 193 -188 0
-188 -193 -266 0
188 193 -266 0
188 -193 266 0
-188 193 266 0
-267 -266 0
-267 -264 0
267 266 264 0
-268 -267 0
-268 -265 0
268 267 265 0
-269 -268 0
-269 221 0
269 268 -221 0
-270 -254 0
-270 203 0
270 254 -203 0
-271 -203 0
-271 269 0
271 203 -269 0
-272 -271 0
-272 -270 0
272 271 270 0
-273 -272 0
-273 -97 0
273 272 97 0
273 0
