c mask-aware exact local-defect tokens; bidirectional gates
c input i 2 3 4
c input p 25 26
c input q 27 28
p cnf 60 169
1 0
4 -3 -5 0
-4 3 -5 0
-4 -3 5 0
4 3 5 0
-6 -4 0
-6 3 0
6 4 -3 0
-7 -6 0
-7 -4 0
7 6 4 0
3 -2 -8 0
-3 2 -8 0
-3 -2 8 0
3 2 8 0
-9 -3 0
-9 2 0
9 3 -2 0
-3 -5 -10 0
3 5 -10 0
3 -5 10 0
-3 5 10 0
-9 -10 -11 0
9 10 -11 0
9 -10 11 0
-9 10 11 0
-12 3 0
-12 5 0
12 -3 -5 0
-13 9 0
-13 10 0
13 -9 -10 0
-14 -13 0
-14 -12 0
14 13 12 0
7 -4 -15 0
-7 4 -15 0
-7 -4 15 0
7 4 15 0
14 -15 -16 0
-14 15 -16 0
-14 -15 16 0
14 15 16 0
-17 -7 0
-17 4 0
17 7 -4 0
-18 -14 0
-18 15 0
18 14 -15 0
-19 -18 0
-19 -17 0
19 18 17 0
-20 -2 0
-20 8 0
20 2 -8 0
-21 -20 0
-21 8 0
21 20 -8 0
-22 -21 0
-22 -11 0
22 21 11 0
-23 -22 0
-23 -11 0
23 22 11 0
-24 -11 0
-24 -8 0
24 11 8 0
-29 -8 0
-29 -2 0
29 8 2 0
-30 -11 0
-30 29 0
30 11 -29 0
-31 -30 0
-31 -23 0
31 30 23 0
-32 -21 0
-32 11 0
32 21 -11 0
-33 -32 0
-33 11 0
33 32 -11 0
-34 -33 0
-34 31 0
34 33 -31 0
-35 -26 0
-35 -25 0
35 26 25 0
-36 -28 0
-36 -27 0
36 28 27 0
-37 35 0
-37 36 0
37 -35 -36 0
-38 -25 0
-38 23 0
38 25 -23 0
-23 -25 -39 0
23 25 -39 0
23 -25 39 0
-23 25 39 0
-40 -26 0
-40 23 0
40 26 -23 0
-23 -26 -41 0
23 26 -41 0
23 -26 41 0
-23 26 41 0
-42 -41 0
-42 38 0
42 41 -38 0
-43 -42 0
-43 -40 0
43 42 40 0
-44 -27 0
-44 23 0
44 27 -23 0
-23 -27 -45 0
23 27 -45 0
23 -27 45 0
-23 27 45 0
-46 -28 0
-46 23 0
46 28 -23 0
-23 -28 -47 0
23 28 -47 0
23 -28 47 0
-23 28 47 0
-48 -47 0
-48 44 0
48 47 -44 0
-49 -48 0
-49 -46 0
49 48 46 0
-50 -43 0
-50 -23 0
50 43 23 0
-51 -49 0
-51 50 0
51 49 -50 0
-52 23 0
-52 37 0
52 -23 -37 0
-53 -52 0
-53 -51 0
53 52 51 0
-54 -25 0
-54 -23 0
54 25 23 0
23 -25 -55 0
-23 25 -55 0
-23 -25 55 0
23 25 55 0
-56 -26 0
-56 54 0
56 26 -54 0
-57 36 0
-57 56 0
57 -36 -56 0
-58 -53 0
-58 34 0
58 53 -34 0
-59 -34 0
-59 57 0
59 34 -57 0
-60 -59 0
-60 -58 0
60 59 58 0
-60 0
