c mask-aware exact local-defect tokens; bidirectional gates
c input i 2 3 4
c input p 18
c input q 19
p cnf 34 91
1 0
-2 -3 -5 0
2 3 -5 0
2 -3 5 0
-2 3 5 0
-6 2 0
-6 3 0
6 -2 -3 0
-4 -6 -7 0
4 6 -7 0
4 -6 7 0
-4 6 7 0
-8 4 0
-8 6 0
8 -4 -6 0
-9 -5 0
-9 2 0
9 5 -2 0
-10 -7 0
-10 9 0
10 7 -9 0
-11 -10 0
-11 -7 0
11 10 7 0
-12 7 0
-12 9 0
12 -7 -9 0
-13 -12 0
-13 7 0
13 12 -7 0
-14 -13 0
-14 -11 0
14 13 11 0
-15 -4 0
-15 -3 0
15 4 3 0
-16 -15 0
-16 -14 0
16 15 14 0
-17 -16 0
-17 -14 0
17 16 14 0
-20 -19 0
-20 -18 0
20 19 18 0
-21 -18 0
-21 -17 0
21 18 17 0
17 -18 -22 0
-17 18 -22 0
-17 -18 22 0
17 18 22 0
-23 -19 0
-23 -17 0
23 19 17 0
17 -19 -24 0
-17 19 -24 0
-17 -19 24 0
17 19 24 0
-25 17 0
-25 21 0
25 -17 -21 0
-26 23 0
-26 25 0
26 -23 -25 0
-27 -17 0
-27 20 0
27 17 -20 0
-28 -27 0
-28 -26 0
28 27 26 0
-29 -18 0
-29 17 0
29 18 -17 0
-17 -18 -30 0
17 18 -30 0
17 -18 30 0
-17 18 30 0
-31 -19 0
-31 29 0
31 19 -29 0
-32 -28 0
-32 -14 0
32 28 14 0
-33 14 0
-33 31 0
33 -14 -31 0
-34 -33 0
-34 -32 0
34 33 32 0
-34 0
