c mask-aware exact local-defect tokens; bidirectional gates
c input i 2 3 4
c input p 116 117 118
c input q 119 120 121
p cnf 173 517
1 0
-2 -3 -5 0
2 3 -5 0
2 -3 5 0
-2 3 5 0
-6 2 0
-6 3 0
6 -2 -3 0
-4 -6 -7 0
4 6 -7 0
4 -6 7 0
-4 6 7 0
-8 4 0
-8 6 0
8 -4 -6 0
-5 -7 -9 0
5 7 -9 0
5 -7 9 0
-5 7 9 0
-10 5 0
-10 7 0
10 -5 -7 0
-11 -5 0
-11 7 0
11 5 -7 0
-12 -11 0
-12 7 0
12 11 -7 0
2 -5 -13 0
-2 5 -13 0
-2 -5 13 0
2 5 13 0
-14 -2 0
-14 5 0
14 2 -5 0
-7 -14 -15 0
7 14 -15 0
7 -14 15 0
-7 14 15 0
-16 7 0
-16 14 0
16 -7 -14 0
-17 2 0
-17 5 0
17 -2 -5 0
-18 -17 0
-18 5 0
18 17 -5 0
-19 -18 0
-19 7 0
19 18 -7 0
-20 -19 0
-20 7 0
20 19 -7 0
-21 2 0
-21 20 0
21 -2 -20 0
-22 -20 0
-22 -2 0
22 20 2 0
-23 -22 0
-23 -21 0
23 22 21 0
-24 13 0
-24 20 0
24 -13 -20 0
-25 -20 0
-25 5 0
25 20 -5 0
-26 -25 0
-26 -24 0
26 25 24 0
-27 15 0
-27 20 0
27 -15 -20 0
-28 -20 0
-28 7 0
28 20 -7 0
-29 -28 0
-29 -27 0
29 28 27 0
-30 -16 0
-30 20 0
30 16 -20 0
-31 -4 0
-31 -3 0
31 4 3 0
-32 23 0
-32 26 0
32 -23 -26 0
-33 29 0
-33 32 0
33 -29 -32 0
-34 26 0
-34 29 0
34 -26 -29 0
-35 -33 0
-35 34 0
35 33 -34 0
-36 -29 0
-36 32 0
36 29 -32 0
-37 -36 0
-37 -29 0
37 36 29 0
-38 -37 0
-38 -29 0
38 37 29 0
-39 -38 0
-39 -35 0
39 38 35 0
-40 -29 0
-40 26 0
40 29 -26 0
-41 -40 0
-41 -29 0
41 40 29 0
-42 -26 0
-42 23 0
42 26 -23 0
-43 -42 0
-43 -26 0
43 42 26 0
-44 -43 0
-44 -29 0
44 43 29 0
-45 -44 0
-45 -29 0
45 44 29 0
-46 -45 0
-46 41 0
46 45 -41 0
-47 -46 0
-47 39 0
47 46 -39 0
-48 -47 0
-48 31 0
48 47 -31 0
-49 -2 0
-49 3 0
49 2 -3 0
-50 -49 0
-50 3 0
50 49 -3 0
-51 -50 0
-51 4 0
51 50 -4 0
-52 -51 0
-52 4 0
52 51 -4 0
-53 -52 0
-53 -31 0
53 52 31 0
4 -3 -54 0
-4 3 -54 0
-4 -3 54 0
4 3 54 0
-55 -4 0
-55 3 0
55 4 -3 0
-56 -55 0
-56 -4 0
56 55 4 0
3 -2 -57 0
-3 2 -57 0
-3 -2 57 0
3 2 57 0
-58 -3 0
-58 2 0
58 3 -2 0
-59 -58 0
-59 -3 0
59 58 3 0
59 -4 -60 0
-59 4 -60 0
-59 -4 60 0
59 4 60 0
-61 -59 0
-61 4 0
61 59 -4 0
-62 -3 0
-62 -2 0
62 3 2 0
-63 4 0
-63 62 0
63 -4 -62 0
-64 -63 0
-64 4 0
64 63 -4 0
-65 -2 0
-65 64 0
65 2 -64 0
-66 -64 0
-66 2 0
66 64 -2 0
-67 -66 0
-67 -65 0
67 66 65 0
-68 57 0
-68 64 0
68 -57 -64 0
-69 -64 0
-69 3 0
69 64 -3 0
-70 -69 0
-70 -68 0
70 69 68 0
-71 60 0
-71 64 0
71 -60 -64 0
-72 -64 0
-72 4 0
72 64 -4 0
-73 -72 0
-73 -71 0
73 72 71 0
-74 -61 0
-74 64 0
74 61 -64 0
-75 67 0
-75 70 0
75 -67 -70 0
-76 73 0
-76 75 0
76 -73 -75 0
-77 53 0
-77 76 0
77 -53 -76 0
-78 -47 0
-78 77 0
78 47 -77 0
-48 -78 -79 0
48 78 -79 0
48 -78 79 0
-48 78 79 0
-80 48 0
-80 78 0
80 -48 -78 0
-81 -67 0
-81 70 0
81 67 -70 0
-82 73 0
-82 81 0
82 -73 -81 0
-83 53 0
-83 82 0
83 -53 -82 0
-84 -47 0
-84 83 0
84 47 -83 0
-79 -84 -85 0
79 84 -85 0
79 -84 85 0
-79 84 85 0
-86 79 0
-86 84 0
86 -79 -84 0
-80 -86 -87 0
80 86 -87 0
80 -86 87 0
-80 86 87 0
-88 80 0
-88 86 0
88 -80 -86 0
-89 -70 0
-89 67 0
89 70 -67 0
-90 73 0
-90 89 0
90 -73 -89 0
-91 53 0
-91 90 0
91 -53 -90 0
-92 -47 0
-92 91 0
92 47 -91 0
-85 -92 -93 0
85 92 -93 0
85 -92 93 0
-85 92 93 0
-94 85 0
-94 92 0
94 -85 -92 0
-87 -94 -95 0
87 94 -95 0
87 -94 95 0
-87 94 95 0
-96 87 0
-96 94 0
96 -87 -94 0
-88 -96 -97 0
88 96 -97 0
88 -96 97 0
-88 96 97 0
-98 88 0
-98 96 0
98 -88 -96 0
-3 -4 -99 0
3 4 -99 0
3 -4 99 0
-3 4 99 0
-100 3 0
-100 4 0
100 -3 -4 0
-101 -3 0
-101 4 0
101 3 -4 0
-102 -101 0
-102 4 0
102 101 -4 0
-103 2 0
-103 102 0
103 -2 -102 0
-104 -102 0
-104 2 0
104 102 -2 0
-105 -104 0
-105 -103 0
105 104 103 0
-106 -3 0
-106 102 0
106 3 -102 0
-107 -102 0
-107 3 0
107 102 -3 0
-108 -107 0
-108 -106 0
108 107 106 0
-109 99 0
-109 102 0
109 -99 -102 0
-110 -102 0
-110 4 0
110 102 -4 0
-111 -110 0
-111 -109 0
111 110 109 0
-112 -100 0
-112 102 0
112 100 -102 0
-113 -108 0
-113 -105 0
113 108 105 0
-114 111 0
-114 113 0
114 -111 -113 0
-115 -45 0
-115 -33 0
115 45 33 0
-122 -95 0
-122 -93 0
122 95 93 0
-123 -97 0
-123 122 0
123 97 -122 0
95 -93 -124 0
-95 93 -124 0
-95 -93 124 0
95 93 124 0
-125 -95 0
-125 93 0
125 95 -93 0
-126 -125 0
-126 -95 0
126 125 95 0
126 97 -127 0
-126 -97 -127 0
-126 97 127 0
126 -97 127 0
-128 -126 0
-128 -97 0
128 126 97 0
-129 -128 0
-129 -97 0
129 128 97 0
-130 -117 0
-130 -116 0
130 117 116 0
-131 -118 0
-131 130 0
131 118 -130 0
-132 -120 0
-132 -119 0
132 120 119 0
-133 -121 0
-133 132 0
133 121 -132 0
-134 131 0
-134 133 0
134 -131 -133 0
-135 -116 0
-135 -93 0
135 116 93 0
93 -116 -136 0
-93 116 -136 0
-93 -116 136 0
93 116 136 0
-137 -117 0
-137 124 0
137 117 -124 0
-117 -124 -138 0
117 124 -138 0
117 -124 138 0
-117 124 138 0
-139 -138 0
-139 135 0
139 138 -135 0
-140 -139 0
-140 -137 0
140 139 137 0
-141 -118 0
-141 127 0
141 118 -127 0
-118 -127 -142 0
118 127 -142 0
118 -127 142 0
-118 127 142 0
-143 -142 0
-143 -140 0
143 142 140 0
-144 -143 0
-144 -141 0
144 143 141 0
-145 -119 0
-145 -93 0
145 119 93 0
93 -119 -146 0
-93 119 -146 0
-93 -119 146 0
93 119 146 0
-147 -120 0
-147 124 0
147 120 -124 0
-120 -124 -148 0
120 124 -148 0
120 -124 148 0
-120 124 148 0
-149 -148 0
-149 145 0
149 148 -145 0
-150 -149 0
-150 -147 0
150 149 147 0
-151 -121 0
-151 127 0
151 121 -127 0
-121 -127 -152 0
121 127 -152 0
121 -127 152 0
-121 127 152 0
-153 -152 0
-153 -150 0
153 152 150 0
-154 -153 0
-154 -151 0
154 153 151 0
-155 -144 0
-155 -123 0
155 144 123 0
-156 -154 0
-156 155 0
156 154 -155 0
-157 123 0
-157 134 0
157 -123 -134 0
-158 -157 0
-158 -156 0
158 157 156 0
-159 -116 0
-159 93 0
159 116 -93 0
-93 -116 -160 0
93 116 -160 0
93 -116 160 0
-93 116 160 0
-161 -117 0
-161 95 0
161 117 -95 0
-95 -117 -162 0
95 117 -162 0
95 -117 162 0
-95 117 162 0
-163 -162 0
-163 159 0
163 162 -159 0
-164 -163 0
-164 -161 0
164 163 161 0
-165 -118 0
-165 97 0
165 118 -97 0
-97 -118 -166 0
97 118 -166 0
97 -118 166 0
-97 118 166 0
-167 -166 0
-167 -164 0
167 166 164 0
-168 -167 0
-168 -165 0
168 167 165 0
-169 -168 0
-169 133 0
169 168 -133 0
-170 -158 0
-170 -47 0
170 158 47 0
-171 47 0
-171 169 0
171 -47 -169 0
-172 -171 0
-172 -170 0
172 171 170 0
-173 -172 0
-173 -52 0
173 172 52 0
173 0
