c mask-aware exact local-defect tokens; bidirectional gates
c input i 2 3 4
c input p 48
c input q 49
p cnf 69 199
1 0
-2 -3 -5 0
2 3 -5 0
2 -3 5 0
-2 3 5 0
-6 2 0
-6 3 0
6 -2 -3 0
-4 -6 -7 0
4 6 -7 0
4 -6 7 0
-4 6 7 0
-8 4 0
-8 6 0
8 -4 -6 0
-5 -7 -9 0
5 7 -9 0
5 -7 9 0
-5 7 9 0
-10 5 0
-10 7 0
10 -5 -7 0
-11 -5 0
-11 7 0
11 5 -7 0
-12 -11 0
-12 7 0
12 11 -7 0
2 -5 -13 0
-2 5 -13 0
-2 -5 13 0
2 5 13 0
-14 -2 0
-14 5 0
14 2 -5 0
-7 -14 -15 0
7 14 -15 0
7 -14 15 0
-7 14 15 0
-16 7 0
-16 14 0
16 -7 -14 0
-17 2 0
-17 5 0
17 -2 -5 0
-18 -17 0
-18 5 0
18 17 -5 0
-19 -18 0
-19 7 0
19 18 -7 0
-20 -19 0
-20 7 0
20 19 -7 0
-21 2 0
-21 20 0
21 -2 -20 0
-22 -20 0
-22 -2 0
22 20 2 0
-23 -22 0
-23 -21 0
23 22 21 0
-24 13 0
-24 20 0
24 -13 -20 0
-25 -20 0
-25 5 0
25 20 -5 0
-26 -25 0
-26 -24 0
26 25 24 0
-27 15 0
-27 20 0
27 -15 -20 0
-28 -20 0
-28 7 0
28 20 -7 0
-29 -28 0
-29 -27 0
29 28 27 0
-30 -16 0
-30 20 0
30 16 -20 0
-31 -29 0
-31 -23 0
31 29 23 0
-32 -23 0
-32 29 0
32 23 -29 0
-33 -32 0
-33 -31 0
33 32 31 0
-34 -29 0
-34 -26 0
34 29 26 0
-35 -26 0
-35 29 0
35 26 -29 0
-36 -35 0
-36 -34 0
36 35 34 0
-37 33 0
-37 36 0
37 -33 -36 0
-38 -37 0
-38 36 0
38 37 -36 0
-39 29 0
-39 33 0
39 -29 -33 0
-40 -36 0
-40 39 0
40 36 -39 0
-41 -40 0
-41 -36 0
41 40 36 0
-42 -33 0
-42 29 0
42 33 -29 0
-43 -42 0
-43 -33 0
43 42 33 0
-44 -43 0
-44 -36 0
44 43 36 0
-45 -44 0
-45 -36 0
45 44 36 0
-46 -45 0
-46 41 0
46 45 -41 0
-47 -46 0
-47 -38 0
47 46 38 0
-50 -49 0
-50 -48 0
50 49 48 0
-51 -48 0
-51 47 0
51 48 -47 0
-47 -48 -52 0
47 48 -52 0
47 -48 52 0
-47 48 52 0
-53 -49 0
-53 47 0
53 49 -47 0
-47 -49 -54 0
47 49 -54 0
47 -49 54 0
-47 49 54 0
-55 -47 0
-55 51 0
55 47 -51 0
-56 53 0
-56 55 0
56 -53 -55 0
-57 47 0
-57 50 0
57 -47 -50 0
-58 -57 0
-58 -56 0
58 57 56 0
-59 -48 0
-59 -47 0
59 48 47 0
47 -48 -60 0
-47 48 -60 0
-47 -48 60 0
47 48 60 0
-61 -49 0
-61 59 0
61 49 -59 0
-62 -58 0
-62 -47 0
62 58 47 0
-63 47 0
-63 61 0
63 -47 -61 0
-64 -63 0
-64 -62 0
64 63 62 0
-65 -2 0
-65 3 0
65 2 -3 0
-66 -65 0
-66 3 0
66 65 -3 0
-67 -66 0
-67 4 0
67 66 -4 0
-68 -67 0
-68 4 0
68 67 -4 0
-69 -68 0
-69 -64 0
69 68 64 0
69 0
