c mask-aware exact local-defect tokens; bidirectional gates
c input i 2 3 4
c input p 85 86 87
c input q 88 89 90
p cnf 147 442
1 0
4 -3 -5 0
-4 3 -5 0
-4 -3 5 0
4 3 5 0
-6 -4 0
-6 3 0
6 4 -3 0
-7 -6 0
-7 -4 0
7 6 4 0
3 -2 -8 0
-3 2 -8 0
-3 -2 8 0
3 2 8 0
-9 -3 0
-9 2 0
9 3 -2 0
-3 -5 -10 0
3 5 -10 0
3 -5 10 0
-3 5 10 0
-9 -10 -11 0
9 10 -11 0
9 -10 11 0
-9 10 11 0
-12 3 0
-12 5 0
12 -3 -5 0
-13 9 0
-13 10 0
13 -9 -10 0
-14 -13 0
-14 -12 0
14 13 12 0
7 -4 -15 0
-7 4 -15 0
-7 -4 15 0
7 4 15 0
14 -15 -16 0
-14 15 -16 0
-14 -15 16 0
14 15 16 0
-17 -7 0
-17 4 0
17 7 -4 0
-18 -14 0
-18 15 0
18 14 -15 0
-19 -18 0
-19 -17 0
19 18 17 0
-20 -4 0
-20 -3 0
20 4 3 0
-3 -4 -21 0
3 4 -21 0
3 -4 21 0
-3 4 21 0
-22 3 0
-22 4 0
22 -3 -4 0
-23 -3 0
-23 4 0
23 3 -4 0
-24 -23 0
-24 4 0
24 23 -4 0
-25 -3 0
-25 24 0
25 3 -24 0
-26 -24 0
-26 3 0
26 24 -3 0
-27 -26 0
-27 -25 0
27 26 25 0
-28 21 0
-28 24 0
28 -21 -24 0
-29 -24 0
-29 4 0
29 24 -4 0
-30 -29 0
-30 -28 0
30 29 28 0
-31 -22 0
-31 24 0
31 22 -24 0
27 -2 -32 0
-27 2 -32 0
-27 -2 32 0
27 2 32 0
-33 -27 0
-33 2 0
33 27 -2 0
-30 -33 -34 0
30 33 -34 0
30 -33 34 0
-30 33 34 0
-35 30 0
-35 33 0
35 -30 -33 0
-36 -35 0
-36 30 0
36 35 -30 0
-37 -27 0
-37 -2 0
37 27 2 0
-38 -37 0
-38 -27 0
38 37 27 0
-39 -38 0
-39 30 0
39 38 -30 0
-40 -39 0
-40 -2 0
40 39 2 0
-41 2 0
-41 39 0
41 -2 -39 0
-42 -41 0
-42 -40 0
42 41 40 0
-43 -39 0
-43 32 0
43 39 -32 0
-44 -27 0
-44 39 0
44 27 -39 0
-45 -44 0
-45 -43 0
45 44 43 0
-46 -39 0
-46 34 0
46 39 -34 0
-47 -30 0
-47 39 0
47 30 -39 0
-48 -47 0
-48 -46 0
48 47 46 0
-49 42 0
-49 45 0
49 -42 -45 0
-50 -2 0
-50 8 0
50 2 -8 0
-51 -50 0
-51 8 0
51 50 -8 0
-52 -51 0
-52 -11 0
52 51 11 0
-53 -52 0
-53 -11 0
53 52 11 0
-54 20 0
-54 49 0
54 -20 -49 0
-55 -53 0
-55 54 0
55 53 -54 0
-56 -42 0
-56 45 0
56 42 -45 0
-57 20 0
-57 56 0
57 -20 -56 0
-58 -53 0
-58 57 0
58 53 -57 0
-55 -58 -59 0
55 58 -59 0
55 -58 59 0
-55 58 59 0
-60 55 0
-60 58 0
60 -55 -58 0
-61 -45 0
-61 42 0
61 45 -42 0
-62 20 0
-62 61 0
62 -20 -61 0
-63 -53 0
-63 62 0
63 53 -62 0
-59 -63 -64 0
59 63 -64 0
59 -63 64 0
-59 63 64 0
-65 59 0
-65 63 0
65 -59 -63 0
-60 -65 -66 0
60 65 -66 0
60 -65 66 0
-60 65 66 0
-67 60 0
-67 65 0
67 -60 -65 0
-68 -20 0
-68 -2 0
68 20 2 0
-69 -53 0
-69 68 0
69 53 -68 0
-64 -69 -70 0
64 69 -70 0
64 -69 70 0
-64 69 70 0
-71 64 0
-71 69 0
71 -64 -69 0
-66 -71 -72 0
66 71 -72 0
66 -71 72 0
-66 71 72 0
-73 66 0
-73 71 0
73 -66 -71 0
-67 -73 -74 0
67 73 -74 0
67 -73 74 0
-67 73 74 0
-75 67 0
-75 73 0
75 -67 -73 0
-76 -20 0
-76 2 0
76 20 -2 0
-77 -53 0
-77 76 0
77 53 -76 0
-70 -77 -78 0
70 77 -78 0
70 -77 78 0
-70 77 78 0
-79 70 0
-79 77 0
79 -70 -77 0
-72 -79 -80 0
72 79 -80 0
72 -79 80 0
-72 79 80 0
-81 72 0
-81 79 0
81 -72 -79 0
-74 -81 -82 0
74 81 -82 0
74 -81 82 0
-74 81 82 0
-83 74 0
-83 81 0
83 -74 -81 0
-84 -11 0
-84 -8 0
84 11 8 0
-91 -8 0
-91 -2 0
91 8 2 0
-92 -11 0
-92 91 0
92 11 -91 0
-93 -92 0
-93 -53 0
93 92 53 0
-94 -51 0
-94 11 0
94 51 -11 0
-95 -94 0
-95 11 0
95 94 -11 0
-96 -95 0
-96 93 0
96 95 -93 0
-97 -80 0
-97 -78 0
97 80 78 0
-98 -82 0
-98 97 0
98 82 -97 0
80 -78 -99 0
-80 78 -99 0
-80 -78 99 0
80 78 99 0
-100 -80 0
-100 78 0
100 80 -78 0
-101 -100 0
-101 -80 0
101 100 80 0
101 82 -102 0
-101 -82 -102 0
-101 82 102 0
101 -82 102 0
-103 -101 0
-103 -82 0
103 101 82 0
-104 -103 0
-104 -82 0
104 103 82 0
-105 -86 0
-105 -85 0
105 86 85 0
-106 -87 0
-106 105 0
106 87 -105 0
-107 -89 0
-107 -88 0
107 89 88 0
-108 -90 0
-108 107 0
108 90 -107 0
-109 106 0
-109 108 0
109 -106 -108 0
-110 -85 0
-110 -78 0
110 85 78 0
78 -85 -111 0
-78 85 -111 0
-78 -85 111 0
78 85 111 0
-112 -86 0
-112 99 0
112 86 -99 0
-86 -99 -113 0
86 99 -113 0
86 -99 113 0
-86 99 113 0
-114 -113 0
-114 110 0
114 113 -110 0
-115 -114 0
-115 -112 0
115 114 112 0
-116 -87 0
-116 102 0
116 87 -102 0
-87 -102 -117 0
87 102 -117 0
87 -102 117 0
-87 102 117 0
-118 -117 0
-118 -115 0
118 117 115 0
-119 -118 0
-119 -116 0
119 118 116 0
-120 -88 0
-120 -78 0
120 88 78 0
78 -88 -121 0
-78 88 -121 0
-78 -88 121 0
78 88 121 0
-122 -89 0
-122 99 0
122 89 -99 0
-89 -99 -123 0
89 99 -123 0
89 -99 123 0
-89 99 123 0
-124 -123 0
-124 120 0
124 123 -120 0
-125 -124 0
-125 -122 0
125 124 122 0
-126 -90 0
-126 102 0
126 90 -102 0
-90 -102 -127 0
90 102 -127 0
90 -102 127 0
-90 102 127 0
-128 -127 0
-128 -125 0
128 127 125 0
-129 -128 0
-129 -126 0
129 128 126 0
-130 -119 0
-130 -98 0
130 119 98 0
-131 -129 0
-131 130 0
131 129 -130 0
-132 98 0
-132 109 0
132 -98 -109 0
-133 -132 0
-133 -131 0
133 132 131 0
-134 -85 0
-134 78 0
134 85 -78 0
-78 -85 -135 0
78 85 -135 0
78 -85 135 0
-78 85 135 0
-136 -86 0
-136 80 0
136 86 -80 0
-80 -86 -137 0
80 86 -137 0
80 -86 137 0
-80 86 137 0
-138 -137 0
-138 134 0
138 137 -134 0
-139 -138 0
-139 -136 0
139 138 136 0
-140 -87 0
-140 82 0
140 87 -82 0
-82 -87 -141 0
82 87 -141 0
82 -87 141 0
-82 87 141 0
-142 -141 0
-142 -139 0
142 141 139 0
-143 -142 0
-143 -140 0
143 142 140 0
-144 -143 0
-144 108 0
144 143 -108 0
-145 -133 0
-145 96 0
145 133 -96 0
-146 -96 0
-146 144 0
146 96 -144 0
-147 -146 0
-147 -145 0
147 146 145 0
-147 0
