c mask-aware exact local-defect tokens; bidirectional gates
c input i 2 3 4
c input p 100 101
c input q 102 103
p cnf 137 407
1 0
-2 -3 -5 0
2 3 -5 0
2 -3 5 0
-2 3 5 0
-6 2 0
-6 3 0
6 -2 -3 0
-4 -6 -7 0
4 6 -7 0
4 -6 7 0
-4 6 7 0
-8 4 0
-8 6 0
8 -4 -6 0
-5 -7 -9 0
5 7 -9 0
5 -7 9 0
-5 7 9 0
-10 5 0
-10 7 0
10 -5 -7 0
-11 -5 0
-11 7 0
11 5 -7 0
-12 -11 0
-12 7 0
12 11 -7 0
2 -5 -13 0
-2 5 -13 0
-2 -5 13 0
2 5 13 0
-14 -2 0
-14 5 0
14 2 -5 0
-7 -14 -15 0
7 14 -15 0
7 -14 15 0
-7 14 15 0
-16 7 0
-16 14 0
16 -7 -14 0
-17 2 0
-17 5 0
17 -2 -5 0
-18 -17 0
-18 5 0
18 17 -5 0
-19 -18 0
-19 7 0
19 18 -7 0
-20 -19 0
-20 7 0
20 19 -7 0
-21 2 0
-21 20 0
21 -2 -20 0
-22 -20 0
-22 -2 0
22 20 2 0
-23 -22 0
-23 -21 0
23 22 21 0
-24 13 0
-24 20 0
24 -13 -20 0
-25 -20 0
-25 5 0
25 20 -5 0
-26 -25 0
-26 -24 0
26 25 24 0
-27 15 0
-27 20 0
27 -15 -20 0
-28 -20 0
-28 7 0
28 20 -7 0
-29 -28 0
-29 -27 0
29 28 27 0
-30 -16 0
-30 20 0
30 16 -20 0
-31 -29 0
-31 -23 0
31 29 23 0
-32 -23 0
-32 29 0
32 23 -29 0
-33 -32 0
-33 -31 0
33 32 31 0
-34 -29 0
-34 -26 0
34 29 26 0
-35 -26 0
-35 29 0
35 26 -29 0
-36 -35 0
-36 -34 0
36 35 34 0
-37 29 0
-37 33 0
37 -29 -33 0
-38 36 0
-38 37 0
38 -36 -37 0
-39 33 0
-39 36 0
39 -33 -36 0
-40 -33 0
-40 29 0
40 33 -29 0
-41 -40 0
-41 -33 0
41 40 33 0
-42 -41 0
-42 -36 0
42 41 36 0
-43 -42 0
-43 -36 0
43 42 36 0
-44 -43 0
-44 -39 0
44 43 39 0
-45 -44 0
-45 -38 0
45 44 38 0
-46 -36 0
-46 37 0
46 36 -37 0
-47 -46 0
-47 -36 0
47 46 36 0
-48 -36 0
-48 33 0
48 36 -33 0
-49 -48 0
-49 -36 0
49 48 36 0
-50 -49 0
-50 47 0
50 49 -47 0
-51 -50 0
-51 -39 0
51 50 39 0
-52 -45 0
-52 51 0
52 45 -51 0
-53 -4 0
-53 -3 0
53 4 3 0
-54 -2 0
-54 3 0
54 2 -3 0
-55 -54 0
-55 3 0
55 54 -3 0
-56 -55 0
-56 4 0
56 55 -4 0
-57 -56 0
-57 4 0
57 56 -4 0
-58 -57 0
-58 -53 0
58 57 53 0
4 -3 -59 0
-4 3 -59 0
-4 -3 59 0
4 3 59 0
-60 -4 0
-60 3 0
60 4 -3 0
-61 -60 0
-61 -4 0
61 60 4 0
3 -2 -62 0
-3 2 -62 0
-3 -2 62 0
3 2 62 0
-63 -3 0
-63 2 0
63 3 -2 0
-64 -63 0
-64 -3 0
64 63 3 0
64 -4 -65 0
-64 4 -65 0
-64 -4 65 0
64 4 65 0
-66 -64 0
-66 4 0
66 64 -4 0
-67 -3 0
-67 -2 0
67 3 2 0
-68 4 0
-68 67 0
68 -4 -67 0
-69 -68 0
-69 4 0
69 68 -4 0
-70 -2 0
-70 69 0
70 2 -69 0
-71 -69 0
-71 2 0
71 69 -2 0
-72 -71 0
-72 -70 0
72 71 70 0
-73 62 0
-73 69 0
73 -62 -69 0
-74 -69 0
-74 3 0
74 69 -3 0
-75 -74 0
-75 -73 0
75 74 73 0
-76 65 0
-76 69 0
76 -65 -69 0
-77 -69 0
-77 4 0
77 69 -4 0
-78 -77 0
-78 -76 0
78 77 76 0
-79 -66 0
-79 69 0
79 66 -69 0
-80 72 0
-80 75 0
80 -72 -75 0
-81 78 0
-81 80 0
81 -78 -80 0
-82 -47 0
-82 -39 0
82 47 39 0
-83 -43 0
-83 49 0
83 43 -49 0
-84 -83 0
-84 -82 0
84 83 82 0
-85 58 0
-85 81 0
85 -58 -81 0
-86 -84 0
-86 85 0
86 84 -85 0
-87 -86 0
-87 52 0
87 86 -52 0
-88 -41 0
-88 36 0
88 41 -36 0
-89 -39 0
-89 88 0
89 39 -88 0
-90 85 0
-90 89 0
90 -85 -89 0
-87 -90 -91 0
87 90 -91 0
87 -90 91 0
-87 90 91 0
-92 87 0
-92 90 0
92 -87 -90 0
-93 -88 0
-93 -47 0
93 88 47 0
-94 -93 0
-94 -83 0
94 93 83 0
-95 -94 0
-95 85 0
95 94 -85 0
-91 -95 -96 0
91 95 -96 0
91 -95 96 0
-91 95 96 0
-97 91 0
-97 95 0
97 -91 -95 0
-92 -97 -98 0
92 97 -98 0
92 -97 98 0
-92 97 98 0
-99 92 0
-99 97 0
99 -92 -97 0
-104 -98 0
-104 -96 0
104 98 96 0
98 -96 -105 0
-98 96 -105 0
-98 -96 105 0
98 96 105 0
-106 -98 0
-106 96 0
106 98 -96 0
-107 -106 0
-107 -98 0
107 106 98 0
-108 -101 0
-108 -100 0
108 101 100 0
-109 -103 0
-109 -102 0
109 103 102 0
-110 108 0
-110 109 0
110 -108 -109 0
-111 -100 0
-111 -96 0
111 100 96 0
96 -100 -112 0
-96 100 -112 0
-96 -100 112 0
96 100 112 0
-113 -101 0
-113 105 0
113 101 -105 0
-101 -105 -114 0
101 105 -114 0
101 -105 114 0
-101 105 114 0
-115 -114 0
-115 111 0
115 114 -111 0
-116 -115 0
-116 -113 0
116 115 113 0
-117 -102 0
-117 -96 0
117 102 96 0
96 -102 -118 0
-96 102 -118 0
-96 -102 118 0
96 102 118 0
-119 -103 0
-119 105 0
119 103 -105 0
-103 -105 -120 0
103 105 -120 0
103 -105 120 0
-103 105 120 0
-121 -120 0
-121 117 0
121 120 -117 0
-122 -121 0
-122 -119 0
122 121 119 0
-123 -116 0
-123 -104 0
123 116 104 0
-124 -122 0
-124 123 0
124 122 -123 0
-125 104 0
-125 110 0
125 -104 -110 0
-126 -125 0
-126 -124 0
126 125 124 0
-127 -100 0
-127 96 0
127 100 -96 0
-96 -100 -128 0
96 100 -128 0
96 -100 128 0
-96 100 128 0
-129 -101 0
-129 98 0
129 101 -98 0
-98 -101 -130 0
98 101 -130 0
98 -101 130 0
-98 101 130 0
-131 -130 0
-131 127 0
131 130 -127 0
-132 -131 0
-132 -129 0
132 131 129 0
-133 -132 0
-133 109 0
133 132 -109 0
-134 -126 0
-134 52 0
134 126 -52 0
-135 -52 0
-135 133 0
135 52 -133 0
-136 -135 0
-136 -134 0
136 135 134 0
-137 -136 0
-137 -57 0
137 136 57 0
137 0
